     Program PWSCF v.7.2 starts on 20Mar2025 at 16: 8: 8

     Reading input from LLZO_LaTermination_0D00125Ha.scf.in

     Current dimensions of program PWSCF are:
     Max number of different atomic species (ntypx) = 10
     Max number of k-points (npk) =  40000
     Max angular momentum in pseudopotentials (lmaxx) =  4

     gamma-point specific algorithms are used

     R & G space division:  proc/nbgrp/npool/nimage =     240
     Subspace diagonalization in iterative solution of the eigenvalue problem:
     one sub-group per band group will be used

     Using Slab Decomposition

     bravais-lattice index     =            0
     lattice parameter (alat)  =      21.3406  a.u.
     unit-cell volume          =   39187.6345 (a.u.)^3
     number of atoms/cell      =          288
     number of atomic types    =            4
     number of electrons       =      1800.00
     number of Kohn-Sham states=         1080
     kinetic-energy cutoff     =      90.0000  Ry
     charge density cutoff     =     360.0000  Ry
     scf convergence threshold =      1.0E-09
     mixing beta               =       0.7000
     number of iterations used =            8  plain     mixing
     Exchange-correlation= PBE
                           (   1   4   3   4   0   0   0)

     celldm(1)=  21.340634  celldm(2)=   0.000000  celldm(3)=   0.000000
     celldm(4)=   0.000000  celldm(5)=   0.000000  celldm(6)=   0.000000

     crystal axes: (cart. coord. in units of alat)
               a(1) = (   1.000000   0.000000   0.000000 )
               a(2) = (  -0.316403   0.948624   0.000000 )
               a(3) = (   0.000000   0.000000   4.250429 )

     reciprocal axes: (cart. coord. in units 2 pi/alat)
               b(1) = (  1.000000  0.333539 -0.000000 )
               b(2) = (  0.000000  1.054158  0.000000 )
               b(3) = (  0.000000 -0.000000  0.235270 )

     PseudoPot. # 1 for Li read from file:
     ./Li.upf
     MD5 check sum: 36b212ba84a3343c64836813e23b5a31
     Pseudo is Norm-conserving, Zval =  3.0
     Generated using ONCVPSP code by D. R. Hamann
     Using radial grid of 1938 points,  4 beta functions with:
                l(1) =   0
                l(2) =   0
                l(3) =   1
                l(4) =   1

     PseudoPot. # 2 for La read from file:
     ./La.upf
     MD5 check sum: 94ac605e04917972278bb538f6bd832e
     Pseudo is Norm-conserving + core correction, Zval = 11.0
     Generated using ONCVPSP code by D. R. Hamann
     Using radial grid of 1816 points,  8 beta functions with:
                l(1) =   0
                l(2) =   0
                l(3) =   1
                l(4) =   1
                l(5) =   2
                l(6) =   2
                l(7) =   3
                l(8) =   3

     PseudoPot. # 3 for Zr read from file:
     ./Zr.upf
     MD5 check sum: 7356faafce8c11995bde75aded518977
     Pseudo is Norm-conserving + core correction, Zval = 12.0
     Generated using ONCVPSP code by D. R. Hamann
     Using radial grid of 1612 points,  6 beta functions with:
                l(1) =   0
                l(2) =   0
                l(3) =   1
                l(4) =   1
                l(5) =   2
                l(6) =   2

     PseudoPot. # 4 for O  read from file:
     ./O.upf
     MD5 check sum: f9f408bc39120c85e44a0bb1c57dbd9f
     Pseudo is Norm-conserving + core correction, Zval =  6.0
     Generated using ONCVPSP code by D. R. Hamann
     Using radial grid of  934 points,  5 beta functions with:
                l(1) =   0
                l(2) =   0
                l(3) =   1
                l(4) =   1
                l(5) =   2

     atomic species   valence    mass     pseudopotential
        Li             3.00     6.90000     Li( 1.00)
        La            11.00   139.00000     La( 1.00)
        Zr            12.00    91.22400     Zr( 1.00)
        O              6.00    16.00000     O ( 1.00)

     No symmetry found

   Cartesian axes

     site n.     atom                  positions (alat units)
         1           Li  tau(   1) = (  -0.0401741   0.5314518   0.9528658  )
         2           Li  tau(   2) = (   0.1309308   0.0696081   0.9385469  )
         3           Li  tau(   3) = (   0.8538406   0.0434466   0.9666809  )
         4           Li  tau(   4) = (   0.7118945   0.5489094   1.0005721  )
         5           Li  tau(   5) = (  -0.2409594   0.7769992   1.0208612  )
         6           Li  tau(   6) = (   0.3459555   0.9486075   1.0723897  )
         7           Li  tau(   7) = (   0.1356213   0.5221967   1.0728849  )
         8           Li  tau(   8) = (  -0.1896788   0.9477617   1.1409935  )
         9           Li  tau(   9) = (   0.6170900   0.5210270   1.1890965  )
        10           Li  tau(  10) = (   0.2309895   0.6668810   1.2076216  )
        11           Li  tau(  11) = (   0.2165960   0.9161132   1.2242957  )
        12           Li  tau(  12) = (   0.4182676   0.5328995   1.2974048  )
        13           Li  tau(  13) = (   0.2942079   0.0022691   1.2965237  )
        14           Li  tau(  14) = (   0.1771489   0.4655346   1.2882004  )
        15           Li  tau(  15) = (   0.6393455   0.1375649   1.3415002  )
        16           Li  tau(  16) = (   0.1335419   0.1468095   1.3351564  )
        17           Li  tau(  17) = (   0.6320857   0.3742104   1.3490262  )
        18           Li  tau(  18) = (   0.0399456   0.3312435   1.4167569  )
        19           Li  tau(  19) = (   0.8171725   0.2454882   1.4305787  )
        20           Li  tau(  20) = (   0.5613585   0.5676589   1.4466564  )
        21           Li  tau(  21) = (  -0.1079433   0.8954757   1.5056956  )
        22           Li  tau(  22) = (   0.7056349   0.1025367   1.5792814  )
        23           Li  tau(  23) = (   0.0320763   0.4625938   1.6111084  )
        24           Li  tau(  24) = (  -0.2553978   0.7734398   1.6148849  )
        25           Li  tau(  25) = (   0.5413538   0.6917385   1.6240346  )
        26           Li  tau(  26) = (  -0.0635491   0.6739187   1.6619951  )
        27           Li  tau(  27) = (  -0.0532046   0.8916387   1.7146366  )
        28           Li  tau(  28) = (   0.4428583   0.8747493   1.7009824  )
        29           Li  tau(  29) = (   0.5612555   0.0651713   1.7472496  )
        30           Li  tau(  30) = (   0.4193567   0.5433533   1.7379959  )
        31           Li  tau(  31) = (   0.2128411   0.4645996   1.7790350  )
        32           Li  tau(  32) = (   0.3581659   0.1027038   1.8261314  )
        33           Li  tau(  33) = (   0.3737168   0.3226177   1.8347685  )
        34           Li  tau(  34) = (  -0.0137717   0.4956248   1.8308839  )
        35           Li  tau(  35) = (   0.7503689   0.0750828   1.8671986  )
        36           Li  tau(  36) = (   0.4481022   0.4998232   1.9550951  )
        37           Li  tau(  37) = (   0.2360226   0.0770414   2.0097381  )
        38           Li  tau(  38) = (   0.8478227   0.2280218   2.0167662  )
        39           Li  tau(  39) = (  -0.1413950   0.4617279   2.0265256  )
        40           Li  tau(  40) = (   0.0279178   0.0844800   2.0985060  )
        41           Li  tau(  41) = (   0.6418812   0.4963596   2.1045683  )
        42           Li  tau(  42) = (   0.8006875   0.0225167   2.1037308  )
        43           Li  tau(  43) = (  -0.0415310   0.6284323   2.1538031  )
        44           Li  tau(  44) = (   0.4593846   0.6267310   2.1528822  )
        45           Li  tau(  45) = (  -0.0515820   0.8631856   2.1612773  )
        46           Li  tau(  46) = (   0.3581290   0.8224719   2.2309911  )
        47           Li  tau(  47) = (   0.1405007   0.7382607   2.2406643  )
        48           Li  tau(  48) = (   0.1905771   0.1113115   2.2480655  )
        49           Li  tau(  49) = (   0.5237185   0.4442202   2.3019042  )
        50           Li  tau(  50) = (   0.0237434   0.5980741   2.3881179  )
        51           Li  tau(  51) = (   0.6650222   0.0049314   2.4262732  )
        52           Li  tau(  52) = (   0.3814689   0.3172837   2.4230060  )
        53           Li  tau(  53) = (   0.1743810   0.2345610   2.4327829  )
        54           Li  tau(  54) = (   0.5710180   0.2062794   2.4867857  )
        55           Li  tau(  55) = (   0.5744325   0.4303424   2.5199329  )
        56           Li  tau(  56) = (   0.0740953   0.4177703   2.5111206  )
        57           Li  tau(  57) = (  -0.1187133   0.5610496   2.5584903  )
        58           Li  tau(  58) = (   0.0519769   0.0928062   2.5487406  )
        59           Li  tau(  59) = (   0.8445231   0.0127362   2.5939746  )
        60           Li  tau(  60) = (   0.6735025   0.5957282   2.6343368  )
[...]
       274           O   tau( 274) = (   0.4783659   0.2212572   3.1116490  )
       275           O   tau( 275) = (  -0.2250217   0.7449031   3.1155313  )
       276           O   tau( 276) = (   0.5003556   0.8579194   3.1855030  )
       277           O   tau( 277) = (  -0.0398109   0.2555246   3.1385110  )
       278           O   tau( 278) = (   0.6721747   0.3781719   3.1448816  )
       279           O   tau( 279) = (  -0.0128929   0.8464739   3.2354956  )
       280           O   tau( 280) = (   0.3073175   0.6932600   3.2299859  )
       281           O   tau( 281) = (   0.2247218   0.9322135   3.2444881  )
       282           O   tau( 282) = (   0.0815148   0.6133238   3.2143656  )
       283           O   tau( 283) = (   0.5648201   0.5886521   3.2126606  )
       284           O   tau( 284) = (   0.0469442   0.0332460   3.2464786  )
       285           O   tau( 285) = (   0.3020974   0.1360316   3.3077066  )
       286           O   tau( 286) = (   0.2794488   0.4199818   3.2760468  )
       287           O   tau( 287) = (   0.7704661   0.1392517   3.2929744  )
       288           O   tau( 288) = (  -0.1679624   0.5739047   3.2927061  )

     number of k points=     1  Fermi-Dirac smearing, width (Ry)=  0.0000
                       cart. coord. in units 2pi/alat
        k(    1) = (   0.0000000   0.0000000   0.0000000), wk =   2.0000000

     Initial potential from superposition of free atoms

     starting charge    1799.2393, renormalised to    1800.0000

     negative rho (up, down):  4.061E-04 0.000E+00

     Adding external electric field

     Computed dipole along edir(3) :
        Dipole               -0.0004 Ry au,         -0.0010 Debye
        Dipole field         -0.0000 Ry au,

        E field amplitude [Ha a.u.]:  1.2500E-03
        Potential amp.        0.1814 Ry
        Total length         72.5655 bohr

     Starting wfcs are 1344 atomic wfcs

     Self-consistent Calculation

     iteration #  1     ecut=    90.00 Ry     beta= 0.70
     Davidson diagonalization with overlap
     ethr =  1.00E-02,  avg # of iterations =  2.0

[...]

     total energy              =  -10936.69814171 Ry
     estimated scf accuracy    <      84.69048312 Ry

[...]

     iteration # 11     ecut=    90.00 Ry     beta= 0.70
     Davidson diagonalization with overlap
     c_bands:  3 eigenvalues not converged
     ethr =  4.86E-06,  avg # of iterations = 20.0

[...]

     iteration # 15     ecut=    90.00 Ry     beta= 0.70
[...]
     atom   10 type  1   force =     0.00000000    0.00000000    0.00000000
     atom   11 type  1   force =     0.00000000    0.00000000    0.00000000
     atom   12 type  1   force =     0.00000000    0.00000000    0.00000000
     atom   13 type  1   force =     0.00000000    0.00000000    0.00000000
     atom   14 type  1   force =     0.00000000    0.00000000    0.00000000
     atom   15 type  1   force =     0.00000000    0.00000000    0.00000000
     atom   16 type  1   force =     0.00000000    0.00000000    0.00000000
     atom   17 type  1   force =     0.00000000    0.00000000    0.00000000
     atom   18 type  1   force =     0.00000000    0.00000000    0.00000000
     atom   19 type  1   force =     0.00000000    0.00000000    0.00000000
     atom   20 type  1   force =     0.00000000    0.00000000    0.00000000
     atom   21 type  1   force =     0.00000000    0.00000000    0.00000000
     atom   22 type  1   force =     0.00000000    0.00000000    0.00000000
     atom   23 type  1   force =     0.00000000    0.00000000    0.00000000
     atom   24 type  1   force =     0.00000000    0.00000000    0.00000000
     atom   25 type  1   force =     0.00000000    0.00000000    0.00000000
     atom   26 type  1   force =     0.00000000    0.00000000    0.00000000
     atom   27 type  1   force =     0.00000000    0.00000000    0.00000000
     atom   28 type  1   force =     0.00000000    0.00000000    0.00000000
     atom   29 type  1   force =     0.00000000    0.00000000    0.00000000
     atom   30 type  1   force =     0.00000000    0.00000000    0.00000000
     atom   31 type  1   force =     0.00000000    0.00000000    0.00000000
     atom   32 type  1   force =     0.00000000    0.00000000    0.00000000
     atom   33 type  1   force =     0.00000000    0.00000000    0.00000000
     atom   34 type  1   force =     0.00000000    0.00000000    0.00000000
     atom   35 type  1   force =     0.00000000    0.00000000    0.00000000
     atom   36 type  1   force =     0.00000000    0.00000000    0.00000000
     atom   37 type  1   force =     0.00000000    0.00000000    0.00000000
     atom   38 type  1   force =     0.00000000    0.00000000    0.00000000
     atom   39 type  1   force =     0.00000000    0.00000000    0.00000000
     atom   40 type  1   force =     0.00000000    0.00000000    0.00000000
     atom   41 type  1   force =     0.00000000    0.00000000    0.00000000
     atom   42 type  1   force =     0.00000000    0.00000000    0.00000000
     atom   43 type  1   force =     0.00000000    0.00000000    0.00000000
     atom   44 type  1   force =     0.00000000    0.00000000    0.00000000
     atom   45 type  1   force =     0.00000000    0.00000000    0.00000000
     atom   46 type  1   force =     0.00000000    0.00000000    0.00000000
     atom   47 type  1   force =     0.00000000    0.00000000    0.00000000
     atom   48 type  1   force =     0.00000000    0.00000000    0.00000000
     atom   49 type  1   force =     0.00000000    0.00000000    0.00000000
     atom   50 type  1   force =     0.00000000    0.00000000    0.00000000
     atom   51 type  1   force =     0.00000000    0.00000000    0.00000000
     atom   52 type  1   force =     0.00000000    0.00000000    0.00000000
     atom   53 type  1   force =     0.00000000    0.00000000    0.00000000
     atom   54 type  1   force =     0.00000000    0.00000000    0.00000000
     atom   55 type  1   force =     0.00000000    0.00000000    0.00000000
     atom   56 type  1   force =     0.00000000    0.00000000    0.00000000
     atom   57 type  1   force =     0.00000000    0.00000000    0.00000000
     atom   58 type  1   force =     0.00000000    0.00000000    0.00000000
     atom   59 type  1   force =     0.00000000    0.00000000    0.00000000
     atom   60 type  1   force =     0.00000000    0.00000000    0.00000000
[...]
     atom  274 type  4   force =     0.00243558    0.00497171   -0.00129046
     atom  275 type  4   force =     0.00107780    0.00436419   -0.00196043
     atom  276 type  4   force =    -0.00171089   -0.00381860   -0.00113322
     atom  277 type  4   force =     0.00118996    0.00527002    0.00248422
     atom  278 type  4   force =    -0.00051625   -0.00600741    0.00364474
     atom  279 type  4   force =    -0.00185467   -0.00159271    0.00036565
     atom  280 type  4   force =     0.00347114    0.00266614    0.00355022
     atom  281 type  4   force =     0.00408956    0.00158445    0.00344814
     atom  282 type  4   force =    -0.00641666    0.00017305    0.00348984
     atom  283 type  4   force =    -0.00336239    0.00149538    0.00580119
     atom  284 type  4   force =     0.00200655    0.00038341    0.00575481
     atom  285 type  4   force =     0.00118148    0.00510848    0.01010105
     atom  286 type  4   force =     0.00161030   -0.00324253    0.00988071
     atom  287 type  4   force =    -0.00118342    0.00759243    0.01117425
     atom  288 type  4   force =     0.00057482   -0.00249808    0.01275927
     The Hubbard contrib.    to forces
     atom    1 type  1   force =     0.00000000    0.00000000    0.00000000
     atom    2 type  1   force =     0.00000000    0.00000000    0.00000000
     atom    3 type  1   force =     0.00000000    0.00000000    0.00000000
     atom    4 type  1   force =     0.00000000    0.00000000    0.00000000
     atom    5 type  1   force =     0.00000000    0.00000000    0.00000000
     atom    6 type  1   force =     0.00000000    0.00000000    0.00000000
     atom    7 type  1   force =     0.00000000    0.00000000    0.00000000
     atom    8 type  1   force =     0.00000000    0.00000000    0.00000000
     atom    9 type  1   force =     0.00000000    0.00000000    0.00000000
     atom   10 type  1   force =     0.00000000    0.00000000    0.00000000
     atom   11 type  1   force =     0.00000000    0.00000000    0.00000000
     atom   12 type  1   force =     0.00000000    0.00000000    0.00000000
     atom   13 type  1   force =     0.00000000    0.00000000    0.00000000
     atom   14 type  1   force =     0.00000000    0.00000000    0.00000000
     atom   15 type  1   force =     0.00000000    0.00000000    0.00000000
     atom   16 type  1   force =     0.00000000    0.00000000    0.00000000
     atom   17 type  1   force =     0.00000000    0.00000000    0.00000000
     atom   18 type  1   force =     0.00000000    0.00000000    0.00000000
     atom   19 type  1   force =     0.00000000    0.00000000    0.00000000
     atom   20 type  1   force =     0.00000000    0.00000000    0.00000000
     atom   21 type  1   force =     0.00000000    0.00000000    0.00000000
     atom   22 type  1   force =     0.00000000    0.00000000    0.00000000
     atom   23 type  1   force =     0.00000000    0.00000000    0.00000000
     atom   24 type  1   force =     0.00000000    0.00000000    0.00000000
     atom   25 type  1   force =     0.00000000    0.00000000    0.00000000
     atom   26 type  1   force =     0.00000000    0.00000000    0.00000000
     atom   27 type  1   force =     0.00000000    0.00000000    0.00000000
     atom   28 type  1   force =     0.00000000    0.00000000    0.00000000
     atom   29 type  1   force =     0.00000000    0.00000000    0.00000000
     atom   30 type  1   force =     0.00000000    0.00000000    0.00000000
     atom   31 type  1   force =     0.00000000    0.00000000    0.00000000
     atom   32 type  1   force =     0.00000000    0.00000000    0.00000000
     atom   33 type  1   force =     0.00000000    0.00000000    0.00000000
     atom   34 type  1   force =     0.00000000    0.00000000    0.00000000
     atom   35 type  1   force =     0.00000000    0.00000000    0.00000000
     atom   36 type  1   force =     0.00000000    0.00000000    0.00000000
     atom   37 type  1   force =     0.00000000    0.00000000    0.00000000
     atom   38 type  1   force =     0.00000000    0.00000000    0.00000000
     atom   39 type  1   force =     0.00000000    0.00000000    0.00000000
     atom   40 type  1   force =     0.00000000    0.00000000    0.00000000
     atom   41 type  1   force =     0.00000000    0.00000000    0.00000000
     atom   42 type  1   force =     0.00000000    0.00000000    0.00000000
     atom   43 type  1   force =     0.00000000    0.00000000    0.00000000
     atom   44 type  1   force =     0.00000000    0.00000000    0.00000000
     atom   45 type  1   force =     0.00000000    0.00000000    0.00000000
     atom   46 type  1   force =     0.00000000    0.00000000    0.00000000
     atom   47 type  1   force =     0.00000000    0.00000000    0.00000000
     atom   48 type  1   force =     0.00000000    0.00000000    0.00000000
     atom   49 type  1   force =     0.00000000    0.00000000    0.00000000
     atom   50 type  1   force =     0.00000000    0.00000000    0.00000000
     atom   51 type  1   force =     0.00000000    0.00000000    0.00000000
     atom   52 type  1   force =     0.00000000    0.00000000    0.00000000
     atom   53 type  1   force =     0.00000000    0.00000000    0.00000000
     atom   54 type  1   force =     0.00000000    0.00000000    0.00000000
     atom   55 type  1   force =     0.00000000    0.00000000    0.00000000
     atom   56 type  1   force =     0.00000000    0.00000000    0.00000000
     atom   57 type  1   force =     0.00000000    0.00000000    0.00000000
     atom   58 type  1   force =     0.00000000    0.00000000    0.00000000
     atom   59 type  1   force =     0.00000000    0.00000000    0.00000000
     atom   60 type  1   force =     0.00000000    0.00000000    0.00000000
[...]
     atom  274 type  4   force =     0.00000000    0.00000000    0.00000000
     atom  275 type  4   force =     0.00000000    0.00000000    0.00000000
     atom  276 type  4   force =     0.00000000    0.00000000    0.00000000
     atom  277 type  4   force =     0.00000000    0.00000000    0.00000000
     atom  278 type  4   force =     0.00000000    0.00000000    0.00000000
     atom  279 type  4   force =     0.00000000    0.00000000    0.00000000
     atom  280 type  4   force =     0.00000000    0.00000000    0.00000000
     atom  281 type  4   force =     0.00000000    0.00000000    0.00000000
     atom  282 type  4   force =     0.00000000    0.00000000    0.00000000
     atom  283 type  4   force =     0.00000000    0.00000000    0.00000000
     atom  284 type  4   force =     0.00000000    0.00000000    0.00000000
     atom  285 type  4   force =     0.00000000    0.00000000    0.00000000
     atom  286 type  4   force =     0.00000000    0.00000000    0.00000000
     atom  287 type  4   force =     0.00000000    0.00000000    0.00000000
     atom  288 type  4   force =     0.00000000    0.00000000    0.00000000
     The SCF correction term to forces
     atom    1 type  1   force =    -0.00000104    0.00000059    0.00000037
     atom    2 type  1   force =    -0.00000062   -0.00000027    0.00000060
     atom    3 type  1   force =     0.00000046   -0.00000031    0.00000050
     atom    4 type  1   force =     0.00000042    0.00000061    0.00000056
     atom    5 type  1   force =     0.00000004   -0.00000081    0.00000124
     atom    6 type  1   force =    -0.00000032    0.00000042    0.00000121
     atom    7 type  1   force =    -0.00000015   -0.00000099    0.00000083
     atom    8 type  1   force =    -0.00000019   -0.00000006    0.00000187
     atom    9 type  1   force =     0.00000005   -0.00000014    0.00000128
     atom   10 type  1   force =    -0.00000038    0.00000057    0.00000043
     atom   11 type  1   force =     0.00000028    0.00000107    0.00000027
     atom   12 type  1   force =     0.00000163    0.00000014    0.00000143
     atom   13 type  1   force =    -0.00000086   -0.00000091    0.00000112
     atom   14 type  1   force =    -0.00000093   -0.00000088    0.00000064
     atom   15 type  1   force =     0.00000118    0.00000083    0.00000031
     atom   16 type  1   force =    -0.00000110    0.00000005    0.00000010
     atom   17 type  1   force =     0.00000072   -0.00000054    0.00000051
     atom   18 type  1   force =    -0.00000109   -0.00000041    0.00000050
     atom   19 type  1   force =    -0.00000013   -0.00000041    0.00000032
     atom   20 type  1   force =     0.00000082    0.00000101    0.00000239
     atom   21 type  1   force =    -0.00000042   -0.00000118    0.00000214
     atom   22 type  1   force =     0.00000023   -0.00000086    0.00000159
     atom   23 type  1   force =    -0.00000040    0.00000125    0.00000169
     atom   24 type  1   force =    -0.00000014   -0.00000033    0.00000019
     atom   25 type  1   force =    -0.00000006    0.00000039    0.00000061
     atom   26 type  1   force =    -0.00000049    0.00000030    0.00000047
     atom   27 type  1   force =     0.00000049   -0.00000066    0.00000013
     atom   28 type  1   force =     0.00000002   -0.00000044    0.00000006
     atom   29 type  1   force =    -0.00000039    0.00000002   -0.00000007
     atom   30 type  1   force =    -0.00000040    0.00000041   -0.00000029
     atom   31 type  1   force =     0.00000048   -0.00000016   -0.00000040
     atom   32 type  1   force =     0.00000039    0.00000010   -0.00000130
     atom   33 type  1   force =     0.00000006   -0.00000002   -0.00000100
     atom   34 type  1   force =     0.00000038    0.00000036   -0.00000116
     atom   35 type  1   force =    -0.00000078   -0.00000012   -0.00000148
     atom   36 type  1   force =    -0.00000020   -0.00000018   -0.00000243
     atom   37 type  1   force =     0.00000055    0.00000013   -0.00000229
     atom   38 type  1   force =     0.00000006    0.00000015   -0.00000141
     atom   39 type  1   force =    -0.00000007   -0.00000053   -0.00000138
     atom   40 type  1   force =    -0.00000048    0.00000038   -0.00000143
     atom   41 type  1   force =     0.00000054   -0.00000012   -0.00000183
     atom   42 type  1   force =     0.00000050    0.00000031   -0.00000175
     atom   43 type  1   force =    -0.00000057   -0.00000019   -0.00000191
     atom   44 type  1   force =    -0.00000020   -0.00000041   -0.00000207
     atom   45 type  1   force =     0.00000002    0.00000076   -0.00000211
     atom   46 type  1   force =     0.00000043   -0.00000003   -0.00000192
     atom   47 type  1   force =    -0.00000004    0.00000002   -0.00000157
     atom   48 type  1   force =     0.00000022   -0.00000085   -0.00000239
     atom   49 type  1   force =    -0.00000012    0.00000089   -0.00000283
     atom   50 type  1   force =     0.00000000    0.00000022   -0.00000311
     atom   51 type  1   force =     0.00000014   -0.00000064   -0.00000277
     atom   52 type  1   force =    -0.00000054   -0.00000006   -0.00000214
     atom   53 type  1   force =     0.00000041   -0.00000010   -0.00000194
     atom   54 type  1   force =    -0.00000063    0.00000019   -0.00000174
     atom   55 type  1   force =    -0.00000010   -0.00000009   -0.00000150
     atom   56 type  1   force =     0.00000041   -0.00000056   -0.00000190
     atom   57 type  1   force =     0.00000023    0.00000028   -0.00000190
     atom   58 type  1   force =     0.00000023    0.00000038   -0.00000165
     atom   59 type  1   force =    -0.00000019   -0.00000018   -0.00000147
     atom   60 type  1   force =    -0.00000020   -0.00000032   -0.00000126
[...]
     atom  274 type  4   force =    -0.00000050    0.00000271   -0.00000043
     atom  275 type  4   force =    -0.00000233   -0.00000083   -0.00000109
     atom  276 type  4   force =     0.00000173    0.00000115   -0.00000165
     atom  277 type  4   force =    -0.00000097   -0.00000046   -0.00000155
     atom  278 type  4   force =     0.00000040    0.00000128   -0.00000142
     atom  279 type  4   force =    -0.00000127    0.00000210    0.00000322
     atom  280 type  4   force =     0.00000029   -0.00000115    0.00000177
     atom  281 type  4   force =     0.00000009    0.00000057    0.00000301
     atom  282 type  4   force =     0.00000075   -0.00000134    0.00000198
     atom  283 type  4   force =     0.00000191   -0.00000185   -0.00000196
     atom  284 type  4   force =     0.00000097    0.00000089    0.00000007
     atom  285 type  4   force =    -0.00000138    0.00000277    0.00000331
     atom  286 type  4   force =     0.00000201   -0.00000283    0.00000202
     atom  287 type  4   force =     0.00000088    0.00000080   -0.00000028
     atom  288 type  4   force =    -0.00000207   -0.00000116   -0.00000047

     Total force =     0.111230     Total SCF correction =     0.000092

     Writing all to output data dir ./temp/0D00125Ha.save/

     General routines

     Parallel routines

   This run was terminated on:  16:14:39  20Mar2025

   JOB DONE.