     Program PWSCF v.7.2 starts on 20Mar2025 at 21: 8:21

     Reading input from Al111slabWithNa_0D0Ha.sc.in

     Current dimensions of program PWSCF are:
     Max number of different atomic species (ntypx) = 10
     Max number of k-points (npk) =  40000
     Max angular momentum in pseudopotentials (lmaxx) =  4

     K-points division:     npool     =      12
     R & G space division:  proc/nbgrp/npool/nimage =      16
     Subspace diagonalization in iterative solution of the eigenvalue problem:
     a serial algorithm will be used

     Using Slab Decomposition

     bravais-lattice index     =            0
     lattice parameter (alat)  =      18.6834  a.u.
     unit-cell volume          =   11425.3995 (a.u.)^3
     number of atoms/cell      =           33
     number of atomic types    =            2
     number of electrons       =       105.00
     number of Kohn-Sham states=           64
     kinetic-energy cutoff     =     100.0000  Ry
     charge density cutoff     =     400.0000  Ry
     scf convergence threshold =      1.0E-09
     mixing beta               =       0.7000
     number of iterations used =            8  plain     mixing
     Exchange-correlation= PBE
                           (   1   4   3   4   0   0   0)

     celldm(1)=  18.683402  celldm(2)=   0.000000  celldm(3)=   0.000000
     celldm(4)=   0.000000  celldm(5)=   0.000000  celldm(6)=   0.000000

     crystal axes: (cart. coord. in units of alat)
               a(1) = (   1.000000   0.000000   0.000000 )
               a(2) = (   0.000000   0.577350   0.000000 )
               a(3) = (   0.000000   0.000000   3.034340 )

     reciprocal axes: (cart. coord. in units 2 pi/alat)
               b(1) = (  1.000000  0.000000  0.000000 )
               b(2) = (  0.000000  1.732051  0.000000 )
               b(3) = (  0.000000  0.000000  0.329561 )

     PseudoPot. # 1 for Al read from file:
     ./Al.upf
     MD5 check sum: a92309766db89a6b54a5f8790cc4d69e
     Pseudo is Norm-conserving + core correction, Zval =  3.0
     Generated using ONCVPSP code by D. R. Hamann
     Using radial grid of 1876 points,  6 beta functions with:
                l(1) =   0
                l(2) =   0
                l(3) =   1
                l(4) =   1
                l(5) =   2
                l(6) =   2

     PseudoPot. # 2 for Na read from file:
     ./Na.upf
     MD5 check sum: ed5af011864af3d1529ce3b51bbccf87
     Pseudo is Norm-conserving, Zval =  9.0
     Generated using ONCVPSP code by D. R. Hamann
     Using radial grid of 1992 points,  4 beta functions with:
                l(1) =   0
                l(2) =   0
                l(3) =   1
                l(4) =   1

     atomic species   valence    mass     pseudopotential
        Al             3.00    26.00000     Al( 1.00)
        Na             9.00    23.00000     Na( 1.00)

     No symmetry found

   Cartesian axes

     site n.     atom                  positions (alat units)
         1           Al  tau(   1) = (   0.0000000   0.0000000   1.1636163  )
         2           Al  tau(   2) = (   0.3333333   0.0000000   1.6350208  )
         3           Al  tau(   3) = (   0.6666666   0.0000000   1.3993186  )
         4           Al  tau(   4) = (   0.0000000   0.0000000   1.8707232  )
         5           Al  tau(   5) = (   0.1666667   0.2886751   1.3993186  )
         6           Al  tau(   6) = (   0.5000000   0.2886751   1.8707232  )
         7           Al  tau(   7) = (   0.8333333   0.2886751   1.6350208  )
         8           Al  tau(   8) = (   0.9166667   0.4330127   1.3993186  )
         9           Al  tau(   9) = (   0.2500001   0.4330127   1.8707232  )
        10           Al  tau(  10) = (   0.5833333   0.4330127   1.6350208  )
        11           Al  tau(  11) = (   0.2500001   0.4330127   1.1636163  )
        12           Al  tau(  12) = (   0.0833334   0.1443376   1.6350208  )
        13           Al  tau(  13) = (   0.7500000   0.1443376   1.1636163  )
        14           Al  tau(  14) = (   0.7500000   0.1443376   1.8707232  )
        15           Al  tau(  15) = (   0.4166666   0.1443376   1.3993186  )
        16           Al  tau(  16) = (   0.9166667   0.1443376   1.3993186  )
        17           Al  tau(  17) = (   0.2500001   0.1443376   1.8707232  )
        18           Al  tau(  18) = (   0.5833333   0.1443376   1.6350208  )
        19           Al  tau(  19) = (   0.2500001   0.1443376   1.1636163  )
        20           Al  tau(  20) = (   0.0833334   0.4330127   1.6350208  )
        21           Al  tau(  21) = (   0.7500000   0.4330127   1.1636163  )
        22           Al  tau(  22) = (   0.7500000   0.4330127   1.8707232  )
        23           Al  tau(  23) = (   0.4166666   0.4330127   1.3993186  )
        24           Al  tau(  24) = (   0.1666667   0.0000000   1.3993186  )
        25           Al  tau(  25) = (   0.5000000   0.0000000   1.8707232  )
        26           Al  tau(  26) = (   0.8333333   0.0000000   1.6350208  )
        27           Al  tau(  27) = (   0.5000000   0.0000000   1.1636163  )
        28           Al  tau(  28) = (   0.3333333   0.2886751   1.6350208  )
        29           Al  tau(  29) = (   0.0000000   0.2886751   1.1636163  )
        30           Al  tau(  30) = (   0.0000000   0.2886751   1.8707232  )
        31           Al  tau(  31) = (   0.6666666   0.2886751   1.3993186  )
        32           Al  tau(  32) = (   0.5000000   0.2886751   1.1636163  )
        33           Na  tau(  33) = (   0.5000000   0.2886751   0.8799585  )

     number of k points=    72  Fermi-Dirac smearing, width (Ry)=  0.0032
                       cart. coord. in units 2pi/alat
        k(    1) = (   0.0416667   0.0721688   0.0000000), wk =   0.0277778
        k(    2) = (   0.0416667   0.2165063   0.0000000), wk =   0.0277778
        k(    3) = (   0.0416667   0.3608439   0.0000000), wk =   0.0277778
        k(    4) = (   0.0416667   0.5051815   0.0000000), wk =   0.0277778
        k(    5) = (   0.0416667   0.6495190   0.0000000), wk =   0.0277778
        k(    6) = (   0.0416667   0.7938566   0.0000000), wk =   0.0277778
        k(    7) = (   0.0416667  -0.7938566   0.0000000), wk =   0.0277778
        k(    8) = (   0.0416667  -0.6495190   0.0000000), wk =   0.0277778
        k(    9) = (   0.0416667  -0.5051815   0.0000000), wk =   0.0277778
        k(   10) = (   0.0416667  -0.3608439   0.0000000), wk =   0.0277778
        k(   11) = (   0.0416667  -0.2165063   0.0000000), wk =   0.0277778
        k(   12) = (   0.0416667  -0.0721688   0.0000000), wk =   0.0277778
        k(   13) = (   0.1250000   0.0721688   0.0000000), wk =   0.0277778
        k(   14) = (   0.1250000   0.2165063   0.0000000), wk =   0.0277778
        k(   15) = (   0.1250000   0.3608439   0.0000000), wk =   0.0277778
        k(   16) = (   0.1250000   0.5051815   0.0000000), wk =   0.0277778
        k(   17) = (   0.1250000   0.6495190   0.0000000), wk =   0.0277778
        k(   18) = (   0.1250000   0.7938566   0.0000000), wk =   0.0277778
        k(   19) = (   0.1250000  -0.7938566   0.0000000), wk =   0.0277778
        k(   20) = (   0.1250000  -0.6495190   0.0000000), wk =   0.0277778
        k(   21) = (   0.1250000  -0.5051815   0.0000000), wk =   0.0277778
        k(   22) = (   0.1250000  -0.3608439   0.0000000), wk =   0.0277778
        k(   23) = (   0.1250000  -0.2165063   0.0000000), wk =   0.0277778
        k(   24) = (   0.1250000  -0.0721688   0.0000000), wk =   0.0277778
        k(   25) = (   0.2083333   0.0721688   0.0000000), wk =   0.0277778
        k(   26) = (   0.2083333   0.2165063   0.0000000), wk =   0.0277778
        k(   27) = (   0.2083333   0.3608439   0.0000000), wk =   0.0277778
        k(   28) = (   0.2083333   0.5051815   0.0000000), wk =   0.0277778
        k(   29) = (   0.2083333   0.6495190   0.0000000), wk =   0.0277778
        k(   30) = (   0.2083333   0.7938566   0.0000000), wk =   0.0277778
        k(   31) = (   0.2083333  -0.7938566   0.0000000), wk =   0.0277778
        k(   32) = (   0.2083333  -0.6495190   0.0000000), wk =   0.0277778
        k(   33) = (   0.2083333  -0.5051815   0.0000000), wk =   0.0277778
        k(   34) = (   0.2083333  -0.3608439   0.0000000), wk =   0.0277778
        k(   35) = (   0.2083333  -0.2165063   0.0000000), wk =   0.0277778
        k(   36) = (   0.2083333  -0.0721688   0.0000000), wk =   0.0277778
        k(   37) = (   0.2916667   0.0721688   0.0000000), wk =   0.0277778
        k(   38) = (   0.2916667   0.2165063   0.0000000), wk =   0.0277778
        k(   39) = (   0.2916667   0.3608439   0.0000000), wk =   0.0277778
        k(   40) = (   0.2916667   0.5051815   0.0000000), wk =   0.0277778
        k(   41) = (   0.2916667   0.6495190   0.0000000), wk =   0.0277778
        k(   42) = (   0.2916667   0.7938566   0.0000000), wk =   0.0277778
        k(   43) = (   0.2916667  -0.7938566   0.0000000), wk =   0.0277778
        k(   44) = (   0.2916667  -0.6495190   0.0000000), wk =   0.0277778
        k(   45) = (   0.2916667  -0.5051815   0.0000000), wk =   0.0277778
        k(   46) = (   0.2916667  -0.3608439   0.0000000), wk =   0.0277778
        k(   47) = (   0.2916667  -0.2165063   0.0000000), wk =   0.0277778
        k(   48) = (   0.2916667  -0.0721688   0.0000000), wk =   0.0277778
        k(   49) = (   0.3750000   0.0721688   0.0000000), wk =   0.0277778
        k(   50) = (   0.3750000   0.2165063   0.0000000), wk =   0.0277778
        k(   51) = (   0.3750000   0.3608439   0.0000000), wk =   0.0277778
        k(   52) = (   0.3750000   0.5051815   0.0000000), wk =   0.0277778
        k(   53) = (   0.3750000   0.6495190   0.0000000), wk =   0.0277778
        k(   54) = (   0.3750000   0.7938566   0.0000000), wk =   0.0277778
        k(   55) = (   0.3750000  -0.7938566   0.0000000), wk =   0.0277778
        k(   56) = (   0.3750000  -0.6495190   0.0000000), wk =   0.0277778
        k(   57) = (   0.3750000  -0.5051815   0.0000000), wk =   0.0277778
        k(   58) = (   0.3750000  -0.3608439   0.0000000), wk =   0.0277778
        k(   59) = (   0.3750000  -0.2165063   0.0000000), wk =   0.0277778
        k(   60) = (   0.3750000  -0.0721688   0.0000000), wk =   0.0277778
        k(   61) = (   0.4583333   0.0721688   0.0000000), wk =   0.0277778
        k(   62) = (   0.4583333   0.2165063   0.0000000), wk =   0.0277778
        k(   63) = (   0.4583333   0.3608439   0.0000000), wk =   0.0277778
        k(   64) = (   0.4583333   0.5051815   0.0000000), wk =   0.0277778
        k(   65) = (   0.4583333   0.6495190   0.0000000), wk =   0.0277778
        k(   66) = (   0.4583333   0.7938566   0.0000000), wk =   0.0277778
        k(   67) = (   0.4583333  -0.7938566   0.0000000), wk =   0.0277778
        k(   68) = (   0.4583333  -0.6495190   0.0000000), wk =   0.0277778
        k(   69) = (   0.4583333  -0.5051815   0.0000000), wk =   0.0277778
        k(   70) = (   0.4583333  -0.3608439   0.0000000), wk =   0.0277778
        k(   71) = (   0.4583333  -0.2165063   0.0000000), wk =   0.0277778
        k(   72) = (   0.4583333  -0.0721688   0.0000000), wk =   0.0277778

     Initial potential from superposition of free atoms

[...]
     atom   18 type  1   force =    -0.00029828    0.00002287   -0.00350263
     atom   19 type  1   force =     0.00047371   -0.00004249   -0.00487502
     atom   20 type  1   force =     0.00038194   -0.00024744   -0.00465676
     atom   21 type  1   force =    -0.00023487   -0.00023849   -0.00490909
     atom   22 type  1   force =    -0.00099865    0.00008980    0.00250143
     atom   23 type  1   force =     0.00032868   -0.00041306    0.00294381
     atom   24 type  1   force =     0.00006017    0.00000000    0.00454737
     atom   25 type  1   force =     0.00041950    0.00000000    0.00323533
     atom   26 type  1   force =    -0.00076361    0.00000000   -0.00454280
     atom   27 type  1   force =    -0.00057732   -0.00000000   -0.00813374
     atom   28 type  1   force =     0.00053937   -0.00000000   -0.00370624
     atom   29 type  1   force =     0.00023332   -0.00000000   -0.00198951
     atom   30 type  1   force =     0.00005938    0.00000000    0.00159209
     atom   31 type  1   force =    -0.00065292    0.00000000    0.00302038
     atom   32 type  1   force =    -0.00002155   -0.00000000    0.01501304
     atom   33 type  2   force =     0.00000546    0.00000000   -0.00116827
     The non-local contrib.  to forces
     atom    1 type  1   force =     0.00034738    0.00000000   -0.03717396
     atom    2 type  1   force =    -0.00150280   -0.00000000   -0.00346735
     atom    3 type  1   force =     0.00097535    0.00000000    0.00653864
     atom    4 type  1   force =    -0.00016285    0.00000000    0.03794853
     atom    5 type  1   force =    -0.00085552   -0.00000000    0.00753133
     atom    6 type  1   force =     0.00002340    0.00000000    0.04176091
     atom    7 type  1   force =     0.00124891    0.00000000   -0.00500885
     atom    8 type  1   force =     0.00164919    0.00021394    0.00737796
     atom    9 type  1   force =     0.00012714    0.00004801    0.03958248
     atom   10 type  1   force =    -0.00025660    0.00049254   -0.00390970
     atom   11 type  1   force =    -0.00066282   -0.00033163   -0.03883859
     atom   12 type  1   force =     0.00006402   -0.00019375   -0.00605804
     atom   13 type  1   force =     0.00027601   -0.00052690   -0.03801302
     atom   14 type  1   force =    -0.00029011    0.00001858    0.03886634
     atom   15 type  1   force =    -0.00136276    0.00012639    0.00369372
     atom   16 type  1   force =     0.00164919   -0.00021394    0.00737796
     atom   17 type  1   force =     0.00012714   -0.00004801    0.03958248
     atom   18 type  1   force =    -0.00025660   -0.00049254   -0.00390970
     atom   19 type  1   force =    -0.00066282    0.00033163   -0.03883859
     atom   20 type  1   force =     0.00006402    0.00019375   -0.00605804
     atom   21 type  1   force =     0.00027601    0.00052690   -0.03801302
     atom   22 type  1   force =    -0.00029011   -0.00001858    0.03886634
     atom   23 type  1   force =    -0.00136276   -0.00012639    0.00369372
     atom   24 type  1   force =    -0.00148380    0.00000000    0.00715827
     atom   25 type  1   force =    -0.00032022   -0.00000000    0.04079592
     atom   26 type  1   force =     0.00030819   -0.00000000   -0.00561487
     atom   27 type  1   force =     0.00009183    0.00000000   -0.04245327
     atom   28 type  1   force =    -0.00088259   -0.00000000   -0.00424855
     atom   29 type  1   force =     0.00072670    0.00000000   -0.03667081
     atom   30 type  1   force =     0.00004578    0.00000000    0.03752308
     atom   31 type  1   force =     0.00136984   -0.00000000    0.00389049
     atom   32 type  1   force =    -0.00015990   -0.00000000    0.01168557
     atom   33 type  2   force =    -0.00001622    0.00000000   -0.33628193
     The ionic contribution  to forces
     atom    1 type  1   force =    -0.00000000   -0.00000000   -8.37606502
     atom    2 type  1   force =    -0.02536111   -0.00000000    3.95345377
     atom    3 type  1   force =     0.11081009   -0.00000000   -1.94142688
     atom    4 type  1   force =    -0.00000006   -0.00000000    9.82567551
     atom    5 type  1   force =    -0.11081017   -0.00000000   -2.04750200
     atom    6 type  1   force =     0.00000077   -0.00000000    9.83912590
     atom    7 type  1   force =     0.02536116    0.00000000    3.92595344
     atom    8 type  1   force =     0.06032958    0.00481562   -2.09630161
     atom    9 type  1   force =    -0.00667348    0.00006960    9.83234840
     atom   10 type  1   force =     0.01487576    0.00129928    3.96558533
     atom   11 type  1   force =    -0.54905601    0.11523895   -7.97428501
     atom   12 type  1   force =    -0.01443416   -0.00053435    3.91484010
     atom   13 type  1   force =     0.54905516   -0.11523890   -7.97428441
     atom   14 type  1   force =     0.00667272   -0.00006960    9.83234754
     atom   15 type  1   force =    -0.06886813   -0.01960496   -1.87323836
     atom   16 type  1   force =     0.06032958   -0.00481562   -2.09630161
     atom   17 type  1   force =    -0.00667348   -0.00006960    9.83234840
     atom   18 type  1   force =     0.01487576   -0.00129928    3.96558533
     atom   19 type  1   force =    -0.54905601   -0.11523895   -7.97428501
     atom   20 type  1   force =    -0.01443416    0.00053435    3.91484010
     atom   21 type  1   force =     0.54905516    0.11523890   -7.97428441
     atom   22 type  1   force =     0.00667272    0.00006960    9.83234754
     atom   23 type  1   force =    -0.06886813    0.01960496   -1.87323836
     atom   24 type  1   force =    -0.10383394   -0.00000000   -2.06024273
     atom   25 type  1   force =     0.00000077   -0.00000000    9.83893237
     atom   26 type  1   force =     0.02495071    0.00000000    3.92466820
     atom   27 type  1   force =     0.00000071   -0.00000000   -7.59590775
     atom   28 type  1   force =    -0.02583392   -0.00000000    3.95575694
     atom   29 type  1   force =    -0.00000000   -0.00000000   -8.35266187
     atom   30 type  1   force =    -0.00000006    0.00000000    9.82576353
     atom   31 type  1   force =     0.12091112    0.00000000   -1.90929750
     atom   32 type  1   force =     0.00000071    0.00000000   -6.74874263
     atom   33 type  2   force =     0.00000032   -0.00000000  -31.31150724
     The local contribution  to forces
     atom    1 type  1   force =    -0.00031141    0.00000000    8.40059444
     atom    2 type  1   force =     0.02764186    0.00000000   -3.96089790
     atom    3 type  1   force =    -0.11241999   -0.00000000    1.93292445
     atom    4 type  1   force =     0.00007706   -0.00000000   -9.86518051
     atom    5 type  1   force =     0.11234773    0.00000000    2.03823070
     atom    6 type  1   force =     0.00000937    0.00000000   -9.87987136
     atom    7 type  1   force =    -0.02734474    0.00000000   -3.93227866
     atom    8 type  1   force =    -0.06191189   -0.00489183    2.08711766
     atom    9 type  1   force =     0.00726095   -0.00048266   -9.87213814
     atom   10 type  1   force =    -0.01493527   -0.00178163   -3.97217741
     atom   11 type  1   force =     0.55015303   -0.11488645    7.99713867
     atom   12 type  1   force =     0.01475542    0.00096046   -3.92056361
     atom   13 type  1   force =    -0.54955374    0.11596734    7.99633210
     atom   14 type  1   force =    -0.00739964   -0.00003686   -9.87120001
     atom   15 type  1   force =     0.07046459    0.01989522    1.86589018
     atom   16 type  1   force =    -0.06191189    0.00489183    2.08711766
     atom   17 type  1   force =     0.00726095    0.00048266   -9.87213814
     atom   18 type  1   force =    -0.01493527    0.00178163   -3.97217741
     atom   19 type  1   force =     0.55015303    0.11488645    7.99713867
     atom   20 type  1   force =     0.01475542   -0.00096046   -3.92056361
     atom   21 type  1   force =    -0.54955374   -0.11596734    7.99633210
     atom   22 type  1   force =    -0.00739964    0.00003686   -9.87120001
     atom   23 type  1   force =     0.07046459   -0.01989522    1.86589018
     atom   24 type  1   force =     0.10528044   -0.00000000    2.05124379
     atom   25 type  1   force =     0.00071426    0.00000000   -9.87884396
     atom   26 type  1   force =    -0.02599507    0.00000000   -3.93069345
     atom   27 type  1   force =    -0.00066010   -0.00000000    7.61886318
     atom   28 type  1   force =     0.02719202    0.00000000   -3.96223351
     atom   29 type  1   force =    -0.00044730   -0.00000000    8.37638436
     atom   30 type  1   force =     0.00001858   -0.00000000   -9.86427944
     atom   31 type  1   force =    -0.12283749    0.00000000    1.90184109
     atom   32 type  1   force =     0.00012730   -0.00000000    6.74474030
     atom   33 type  2   force =     0.00002132    0.00000000   31.62619048
     The core correction contribution to forces
     atom    1 type  1   force =    -0.00002267   -0.00000000    0.00419823
     atom    2 type  1   force =     0.00010503    0.00000000    0.00016532
     atom    3 type  1   force =    -0.00006692   -0.00000000   -0.00036070
     atom    4 type  1   force =     0.00001141   -0.00000000   -0.00424649
     atom    5 type  1   force =     0.00005953    0.00000000   -0.00042688
     atom    6 type  1   force =    -0.00000265    0.00000000   -0.00451064
     atom    7 type  1   force =    -0.00008741   -0.00000000    0.00026483
     atom    8 type  1   force =    -0.00010910   -0.00001330   -0.00041778
     atom    9 type  1   force =    -0.00001130   -0.00000427   -0.00436238
     atom   10 type  1   force =     0.00001813   -0.00003293    0.00020339
     atom   11 type  1   force =     0.00003792    0.00002162    0.00431302
     atom   12 type  1   force =    -0.00000372    0.00001478    0.00032998
     atom   13 type  1   force =    -0.00001063    0.00003697    0.00425853
     atom   14 type  1   force =     0.00002103   -0.00000196   -0.00431411
     atom   15 type  1   force =     0.00009248   -0.00000369   -0.00019479
     atom   16 type  1   force =    -0.00010910    0.00001330   -0.00041778
     atom   17 type  1   force =    -0.00001130    0.00000427   -0.00436238
     atom   18 type  1   force =     0.00001813    0.00003293    0.00020339
     atom   19 type  1   force =     0.00003792   -0.00002162    0.00431302
     atom   20 type  1   force =    -0.00000372   -0.00001478    0.00032998
     atom   21 type  1   force =    -0.00001063   -0.00003697    0.00425853
     atom   22 type  1   force =     0.00002103    0.00000196   -0.00431411
     atom   23 type  1   force =     0.00009248    0.00000369   -0.00019479
     atom   24 type  1   force =     0.00009576   -0.00000000   -0.00040325
     atom   25 type  1   force =     0.00002287    0.00000000   -0.00444944
     atom   26 type  1   force =    -0.00002266    0.00000000    0.00030178
     atom   27 type  1   force =    -0.00001014   -0.00000000    0.00456591
     atom   28 type  1   force =     0.00005922    0.00000000    0.00022364
     atom   29 type  1   force =    -0.00004581   -0.00000000    0.00416216
     atom   30 type  1   force =    -0.00000309   -0.00000000   -0.00421928
     atom   31 type  1   force =    -0.00009461   -0.00000000   -0.00020737
     atom   32 type  1   force =     0.00000998    0.00000000    0.00053170
     atom   33 type  2   force =     0.00000000    0.00000000    0.00000000
     The Hubbard contrib.    to forces
     atom    1 type  1   force =     0.00000000    0.00000000    0.00000000
     atom    2 type  1   force =     0.00000000    0.00000000    0.00000000
     atom    3 type  1   force =     0.00000000    0.00000000    0.00000000
     atom    4 type  1   force =     0.00000000    0.00000000    0.00000000
     atom    5 type  1   force =     0.00000000    0.00000000    0.00000000
     atom    6 type  1   force =     0.00000000    0.00000000    0.00000000
     atom    7 type  1   force =     0.00000000    0.00000000    0.00000000
     atom    8 type  1   force =     0.00000000    0.00000000    0.00000000
     atom    9 type  1   force =     0.00000000    0.00000000    0.00000000
     atom   10 type  1   force =     0.00000000    0.00000000    0.00000000
     atom   11 type  1   force =     0.00000000    0.00000000    0.00000000
     atom   12 type  1   force =     0.00000000    0.00000000    0.00000000
     atom   13 type  1   force =     0.00000000    0.00000000    0.00000000
     atom   14 type  1   force =     0.00000000    0.00000000    0.00000000
     atom   15 type  1   force =     0.00000000    0.00000000    0.00000000
     atom   16 type  1   force =     0.00000000    0.00000000    0.00000000
     atom   17 type  1   force =     0.00000000    0.00000000    0.00000000
     atom   18 type  1   force =     0.00000000    0.00000000    0.00000000
     atom   19 type  1   force =     0.00000000    0.00000000    0.00000000
     atom   20 type  1   force =     0.00000000    0.00000000    0.00000000
     atom   21 type  1   force =     0.00000000    0.00000000    0.00000000
     atom   22 type  1   force =     0.00000000    0.00000000    0.00000000
     atom   23 type  1   force =     0.00000000    0.00000000    0.00000000
     atom   24 type  1   force =     0.00000000    0.00000000    0.00000000
     atom   25 type  1   force =     0.00000000    0.00000000    0.00000000
     atom   26 type  1   force =     0.00000000    0.00000000    0.00000000
     atom   27 type  1   force =     0.00000000    0.00000000    0.00000000
     atom   28 type  1   force =     0.00000000    0.00000000    0.00000000
     atom   29 type  1   force =     0.00000000    0.00000000    0.00000000
     atom   30 type  1   force =     0.00000000    0.00000000    0.00000000
     atom   31 type  1   force =     0.00000000    0.00000000    0.00000000
     atom   32 type  1   force =     0.00000000    0.00000000    0.00000000
     atom   33 type  2   force =     0.00000000    0.00000000    0.00000000
     The SCF correction term to forces
     atom    1 type  1   force =    -0.00000030    0.00000000   -0.00000131
     atom    2 type  1   force =     0.00000475    0.00000000   -0.00000254
     atom    3 type  1   force =    -0.00000189    0.00000000   -0.00000431
     atom    4 type  1   force =    -0.00000187    0.00000000    0.00000647
     atom    5 type  1   force =     0.00000164   -0.00000000   -0.00000640
     atom    6 type  1   force =     0.00000178    0.00000000    0.00000250
     atom    7 type  1   force =    -0.00000469   -0.00000000   -0.00000242
     atom    8 type  1   force =    -0.00000232   -0.00000023   -0.00000587
     atom    9 type  1   force =     0.00000271   -0.00000011    0.00000512
     atom   10 type  1   force =    -0.00000032   -0.00000013   -0.00000210
     atom   11 type  1   force =     0.00000159   -0.00000000   -0.00000096
     atom   12 type  1   force =     0.00000036    0.00000030   -0.00000305
     atom   13 type  1   force =    -0.00000166   -0.00000002   -0.00000015
     atom   14 type  1   force =    -0.00000265    0.00000005    0.00000380
     atom   15 type  1   force =     0.00000249    0.00000010   -0.00000480
     atom   16 type  1   force =    -0.00000232    0.00000023   -0.00000587
     atom   17 type  1   force =     0.00000271    0.00000011    0.00000512
     atom   18 type  1   force =    -0.00000032    0.00000013   -0.00000210
     atom   19 type  1   force =     0.00000159    0.00000000   -0.00000096
     atom   20 type  1   force =     0.00000036   -0.00000030   -0.00000305
     atom   21 type  1   force =    -0.00000166    0.00000002   -0.00000015
     atom   22 type  1   force =    -0.00000265   -0.00000005    0.00000380
     atom   23 type  1   force =     0.00000249   -0.00000010   -0.00000480
     atom   24 type  1   force =     0.00000170    0.00000000   -0.00000657
     atom   25 type  1   force =     0.00000181   -0.00000000    0.00000257
     atom   26 type  1   force =    -0.00000478    0.00000000   -0.00000233
     atom   27 type  1   force =     0.00000037    0.00000000    0.00000031
     atom   28 type  1   force =     0.00000464   -0.00000000   -0.00000261
     atom   29 type  1   force =    -0.00000028   -0.00000000   -0.00000120
     atom   30 type  1   force =    -0.00000183   -0.00000000    0.00000634
     atom   31 type  1   force =    -0.00000180   -0.00000000   -0.00000419
     atom   32 type  1   force =     0.00000036   -0.00000000    0.00000024
     atom   33 type  2   force =     0.00000003   -0.00000000    0.00001130

     Total force =     0.026808     Total SCF correction =     0.000028

     Writing all to output data dir ./temp2/AlwithNa_0D0.save/

     General routines

     Parallel routines

   This run was terminated on:  21:15:57  20Mar2025

   JOB DONE.