     Program PWSCF v.7.2 starts on 21Mar2025 at 11:30:42

     Reading input from Al111slabWithNa_0D002Ha.sc.in

     Current dimensions of program PWSCF are:
     Max number of different atomic species (ntypx) = 10
     Max number of k-points (npk) =  40000
     Max angular momentum in pseudopotentials (lmaxx) =  4

     K-points division:     npool     =      12
     R & G space division:  proc/nbgrp/npool/nimage =      16
     Subspace diagonalization in iterative solution of the eigenvalue problem:
     a serial algorithm will be used

     Using Slab Decomposition

     bravais-lattice index     =            0
     lattice parameter (alat)  =      18.6834  a.u.
     unit-cell volume          =   11425.3995 (a.u.)^3
     number of atoms/cell      =           33
     number of atomic types    =            2
     number of electrons       =       105.00
     number of Kohn-Sham states=           64
     kinetic-energy cutoff     =     100.0000  Ry
     charge density cutoff     =     400.0000  Ry
     scf convergence threshold =      1.0E-09
     mixing beta               =       0.7000
     number of iterations used =            8  plain     mixing
     Exchange-correlation= PBE
                           (   1   4   3   4   0   0   0)

     celldm(1)=  18.683402  celldm(2)=   0.000000  celldm(3)=   0.000000
     celldm(4)=   0.000000  celldm(5)=   0.000000  celldm(6)=   0.000000

     crystal axes: (cart. coord. in units of alat)
               a(1) = (   1.000000   0.000000   0.000000 )
               a(2) = (   0.000000   0.577350   0.000000 )
               a(3) = (   0.000000   0.000000   3.034340 )

     reciprocal axes: (cart. coord. in units 2 pi/alat)
               b(1) = (  1.000000  0.000000  0.000000 )
               b(2) = (  0.000000  1.732051  0.000000 )
               b(3) = (  0.000000  0.000000  0.329561 )

     PseudoPot. # 1 for Al read from file:
     ./Al.upf
     MD5 check sum: a92309766db89a6b54a5f8790cc4d69e
     Pseudo is Norm-conserving + core correction, Zval =  3.0
     Generated using ONCVPSP code by D. R. Hamann
     Using radial grid of 1876 points,  6 beta functions with:
                l(1) =   0
                l(2) =   0
                l(3) =   1
                l(4) =   1
                l(5) =   2
                l(6) =   2

     PseudoPot. # 2 for Na read from file:
     ./Na.upf
     MD5 check sum: ed5af011864af3d1529ce3b51bbccf87
     Pseudo is Norm-conserving, Zval =  9.0
     Generated using ONCVPSP code by D. R. Hamann
     Using radial grid of 1992 points,  4 beta functions with:
                l(1) =   0
                l(2) =   0
                l(3) =   1
                l(4) =   1

     atomic species   valence    mass     pseudopotential
        Al             3.00    26.00000     Al( 1.00)
        Na             9.00    23.00000     Na( 1.00)

     No symmetry found

   Cartesian axes

     site n.     atom                  positions (alat units)
         1           Al  tau(   1) = (   0.0000000   0.0000000   1.1636163  )
         2           Al  tau(   2) = (   0.3333333   0.0000000   1.6350208  )
         3           Al  tau(   3) = (   0.6666666   0.0000000   1.3993186  )
         4           Al  tau(   4) = (   0.0000000   0.0000000   1.8707232  )
         5           Al  tau(   5) = (   0.1666667   0.2886751   1.3993186  )
         6           Al  tau(   6) = (   0.5000000   0.2886751   1.8707232  )
         7           Al  tau(   7) = (   0.8333333   0.2886751   1.6350208  )
         8           Al  tau(   8) = (   0.9166667   0.4330127   1.3993186  )
         9           Al  tau(   9) = (   0.2500001   0.4330127   1.8707232  )
        10           Al  tau(  10) = (   0.5833333   0.4330127   1.6350208  )
        11           Al  tau(  11) = (   0.2500001   0.4330127   1.1636163  )
        12           Al  tau(  12) = (   0.0833334   0.1443376   1.6350208  )
        13           Al  tau(  13) = (   0.7500000   0.1443376   1.1636163  )
        14           Al  tau(  14) = (   0.7500000   0.1443376   1.8707232  )
        15           Al  tau(  15) = (   0.4166666   0.1443376   1.3993186  )
        16           Al  tau(  16) = (   0.9166667   0.1443376   1.3993186  )
        17           Al  tau(  17) = (   0.2500001   0.1443376   1.8707232  )
        18           Al  tau(  18) = (   0.5833333   0.1443376   1.6350208  )
        19           Al  tau(  19) = (   0.2500001   0.1443376   1.1636163  )
        20           Al  tau(  20) = (   0.0833334   0.4330127   1.6350208  )
        21           Al  tau(  21) = (   0.7500000   0.4330127   1.1636163  )
        22           Al  tau(  22) = (   0.7500000   0.4330127   1.8707232  )
        23           Al  tau(  23) = (   0.4166666   0.4330127   1.3993186  )
        24           Al  tau(  24) = (   0.1666667   0.0000000   1.3993186  )
        25           Al  tau(  25) = (   0.5000000   0.0000000   1.8707232  )
        26           Al  tau(  26) = (   0.8333333   0.0000000   1.6350208  )
        27           Al  tau(  27) = (   0.5000000   0.0000000   1.1636163  )
        28           Al  tau(  28) = (   0.3333333   0.2886751   1.6350208  )
        29           Al  tau(  29) = (   0.0000000   0.2886751   1.1636163  )
        30           Al  tau(  30) = (   0.0000000   0.2886751   1.8707232  )
        31           Al  tau(  31) = (   0.6666666   0.2886751   1.3993186  )
        32           Al  tau(  32) = (   0.5000000   0.2886751   1.1636163  )
        33           Na  tau(  33) = (   0.5000000   0.2886751   0.8799585  )

     number of k points=    72  Fermi-Dirac smearing, width (Ry)=  0.0032
                       cart. coord. in units 2pi/alat
        k(    1) = (   0.0416667   0.0721688   0.0000000), wk =   0.0277778
        k(    2) = (   0.0416667   0.2165063   0.0000000), wk =   0.0277778
        k(    3) = (   0.0416667   0.3608439   0.0000000), wk =   0.0277778
        k(    4) = (   0.0416667   0.5051815   0.0000000), wk =   0.0277778
        k(    5) = (   0.0416667   0.6495190   0.0000000), wk =   0.0277778
        k(    6) = (   0.0416667   0.7938566   0.0000000), wk =   0.0277778
        k(    7) = (   0.0416667  -0.7938566   0.0000000), wk =   0.0277778
        k(    8) = (   0.0416667  -0.6495190   0.0000000), wk =   0.0277778
        k(    9) = (   0.0416667  -0.5051815   0.0000000), wk =   0.0277778
        k(   10) = (   0.0416667  -0.3608439   0.0000000), wk =   0.0277778
        k(   11) = (   0.0416667  -0.2165063   0.0000000), wk =   0.0277778
        k(   12) = (   0.0416667  -0.0721688   0.0000000), wk =   0.0277778
        k(   13) = (   0.1250000   0.0721688   0.0000000), wk =   0.0277778
        k(   14) = (   0.1250000   0.2165063   0.0000000), wk =   0.0277778
        k(   15) = (   0.1250000   0.3608439   0.0000000), wk =   0.0277778
        k(   16) = (   0.1250000   0.5051815   0.0000000), wk =   0.0277778
        k(   17) = (   0.1250000   0.6495190   0.0000000), wk =   0.0277778
        k(   18) = (   0.1250000   0.7938566   0.0000000), wk =   0.0277778
        k(   19) = (   0.1250000  -0.7938566   0.0000000), wk =   0.0277778
        k(   20) = (   0.1250000  -0.6495190   0.0000000), wk =   0.0277778
        k(   21) = (   0.1250000  -0.5051815   0.0000000), wk =   0.0277778
        k(   22) = (   0.1250000  -0.3608439   0.0000000), wk =   0.0277778
        k(   23) = (   0.1250000  -0.2165063   0.0000000), wk =   0.0277778
        k(   24) = (   0.1250000  -0.0721688   0.0000000), wk =   0.0277778
        k(   25) = (   0.2083333   0.0721688   0.0000000), wk =   0.0277778
        k(   26) = (   0.2083333   0.2165063   0.0000000), wk =   0.0277778
        k(   27) = (   0.2083333   0.3608439   0.0000000), wk =   0.0277778
        k(   28) = (   0.2083333   0.5051815   0.0000000), wk =   0.0277778
        k(   29) = (   0.2083333   0.6495190   0.0000000), wk =   0.0277778
        k(   30) = (   0.2083333   0.7938566   0.0000000), wk =   0.0277778
        k(   31) = (   0.2083333  -0.7938566   0.0000000), wk =   0.0277778
        k(   32) = (   0.2083333  -0.6495190   0.0000000), wk =   0.0277778
        k(   33) = (   0.2083333  -0.5051815   0.0000000), wk =   0.0277778
        k(   34) = (   0.2083333  -0.3608439   0.0000000), wk =   0.0277778
        k(   35) = (   0.2083333  -0.2165063   0.0000000), wk =   0.0277778
        k(   36) = (   0.2083333  -0.0721688   0.0000000), wk =   0.0277778
        k(   37) = (   0.2916667   0.0721688   0.0000000), wk =   0.0277778
        k(   38) = (   0.2916667   0.2165063   0.0000000), wk =   0.0277778
        k(   39) = (   0.2916667   0.3608439   0.0000000), wk =   0.0277778
        k(   40) = (   0.2916667   0.5051815   0.0000000), wk =   0.0277778
        k(   41) = (   0.2916667   0.6495190   0.0000000), wk =   0.0277778
        k(   42) = (   0.2916667   0.7938566   0.0000000), wk =   0.0277778
        k(   43) = (   0.2916667  -0.7938566   0.0000000), wk =   0.0277778
        k(   44) = (   0.2916667  -0.6495190   0.0000000), wk =   0.0277778
        k(   45) = (   0.2916667  -0.5051815   0.0000000), wk =   0.0277778
        k(   46) = (   0.2916667  -0.3608439   0.0000000), wk =   0.0277778
        k(   47) = (   0.2916667  -0.2165063   0.0000000), wk =   0.0277778
        k(   48) = (   0.2916667  -0.0721688   0.0000000), wk =   0.0277778
        k(   49) = (   0.3750000   0.0721688   0.0000000), wk =   0.0277778
        k(   50) = (   0.3750000   0.2165063   0.0000000), wk =   0.0277778
        k(   51) = (   0.3750000   0.3608439   0.0000000), wk =   0.0277778
        k(   52) = (   0.3750000   0.5051815   0.0000000), wk =   0.0277778
        k(   53) = (   0.3750000   0.6495190   0.0000000), wk =   0.0277778
        k(   54) = (   0.3750000   0.7938566   0.0000000), wk =   0.0277778
        k(   55) = (   0.3750000  -0.7938566   0.0000000), wk =   0.0277778
        k(   56) = (   0.3750000  -0.6495190   0.0000000), wk =   0.0277778
        k(   57) = (   0.3750000  -0.5051815   0.0000000), wk =   0.0277778
        k(   58) = (   0.3750000  -0.3608439   0.0000000), wk =   0.0277778
        k(   59) = (   0.3750000  -0.2165063   0.0000000), wk =   0.0277778
        k(   60) = (   0.3750000  -0.0721688   0.0000000), wk =   0.0277778
        k(   61) = (   0.4583333   0.0721688   0.0000000), wk =   0.0277778
        k(   62) = (   0.4583333   0.2165063   0.0000000), wk =   0.0277778
        k(   63) = (   0.4583333   0.3608439   0.0000000), wk =   0.0277778
        k(   64) = (   0.4583333   0.5051815   0.0000000), wk =   0.0277778
        k(   65) = (   0.4583333   0.6495190   0.0000000), wk =   0.0277778
        k(   66) = (   0.4583333   0.7938566   0.0000000), wk =   0.0277778
        k(   67) = (   0.4583333  -0.7938566   0.0000000), wk =   0.0277778
        k(   68) = (   0.4583333  -0.6495190   0.0000000), wk =   0.0277778
        k(   69) = (   0.4583333  -0.5051815   0.0000000), wk =   0.0277778
        k(   70) = (   0.4583333  -0.3608439   0.0000000), wk =   0.0277778
        k(   71) = (   0.4583333  -0.2165063   0.0000000), wk =   0.0277778
        k(   72) = (   0.4583333  -0.0721688   0.0000000), wk =   0.0277778

     Initial potential from superposition of free atoms

[...]
     atom   18 type  1   force =    -0.00029482    0.00003339   -0.00356365
     atom   19 type  1   force =     0.00046782   -0.00003722   -0.00489128
     atom   20 type  1   force =     0.00036681   -0.00024847   -0.00472386
     atom   21 type  1   force =    -0.00023193   -0.00024018   -0.00492630
     atom   22 type  1   force =    -0.00098219    0.00007193    0.00245872
     atom   23 type  1   force =     0.00032244   -0.00042087    0.00305283
     atom   24 type  1   force =     0.00005400   -0.00000000    0.00455876
     atom   25 type  1   force =     0.00041356   -0.00000000    0.00315817
     atom   26 type  1   force =    -0.00074142   -0.00000000   -0.00462085
     atom   27 type  1   force =    -0.00056901    0.00000000   -0.00811807
     atom   28 type  1   force =     0.00053523   -0.00000000   -0.00376004
     atom   29 type  1   force =     0.00023009   -0.00000000   -0.00197352
     atom   30 type  1   force =     0.00005667    0.00000000    0.00160799
     atom   31 type  1   force =    -0.00064084    0.00000000    0.00312030
     atom   32 type  1   force =    -0.00001856   -0.00000000    0.01518163
     atom   33 type  2   force =     0.00000555    0.00000000   -0.00094825
     The non-local contrib.  to forces
     atom    1 type  1   force =     0.00034554    0.00000000   -0.03695173
     atom    2 type  1   force =    -0.00146549    0.00000000   -0.00361014
     atom    3 type  1   force =     0.00094685   -0.00000000    0.00668174
     atom    4 type  1   force =    -0.00016420   -0.00000000    0.03848030
     atom    5 type  1   force =    -0.00082382   -0.00000000    0.00760382
     atom    6 type  1   force =     0.00001883   -0.00000000    0.04213833
     atom    7 type  1   force =     0.00119991    0.00000000   -0.00511405
     atom    8 type  1   force =     0.00163363    0.00021481    0.00743457
     atom    9 type  1   force =     0.00012176    0.00004174    0.04002631
     atom   10 type  1   force =    -0.00026592    0.00049195   -0.00398201
     atom   11 type  1   force =    -0.00067228   -0.00032617   -0.03884405
     atom   12 type  1   force =     0.00006922   -0.00019010   -0.00614943
     atom   13 type  1   force =     0.00028689   -0.00053269   -0.03801677
     atom   14 type  1   force =    -0.00028849    0.00002240    0.03931847
     atom   15 type  1   force =    -0.00135709    0.00009462    0.00397421
     atom   16 type  1   force =     0.00163363   -0.00021481    0.00743457
     atom   17 type  1   force =     0.00012176   -0.00004174    0.04002631
     atom   18 type  1   force =    -0.00026592   -0.00049195   -0.00398201
     atom   19 type  1   force =    -0.00067228    0.00032617   -0.03884405
     atom   20 type  1   force =     0.00006922    0.00019010   -0.00614943
     atom   21 type  1   force =     0.00028689    0.00053269   -0.03801677
     atom   22 type  1   force =    -0.00028849   -0.00002240    0.03931847
     atom   23 type  1   force =    -0.00135709   -0.00009462    0.00397421
     atom   24 type  1   force =    -0.00146974   -0.00000000    0.00723806
     atom   25 type  1   force =    -0.00031621   -0.00000000    0.04114280
     atom   26 type  1   force =     0.00027672   -0.00000000   -0.00573806
     atom   27 type  1   force =     0.00008218    0.00000000   -0.04260300
     atom   28 type  1   force =    -0.00086160    0.00000000   -0.00431844
     atom   29 type  1   force =     0.00073283   -0.00000000   -0.03651081
     atom   30 type  1   force =     0.00003900   -0.00000000    0.03806112
     atom   31 type  1   force =     0.00139645   -0.00000000    0.00413385
     atom   32 type  1   force =    -0.00015728   -0.00000000    0.01148363
     atom   33 type  2   force =    -0.00001261    0.00000000   -0.32947292
     The ionic contribution  to forces
     atom    1 type  1   force =    -0.00000000   -0.00000000   -8.37606502
     atom    2 type  1   force =    -0.02536111   -0.00000000    3.95345377
     atom    3 type  1   force =     0.11081009   -0.00000000   -1.94142688
     atom    4 type  1   force =    -0.00000006   -0.00000000    9.82567551
     atom    5 type  1   force =    -0.11081017   -0.00000000   -2.04750200
     atom    6 type  1   force =     0.00000077   -0.00000000    9.83912590
     atom    7 type  1   force =     0.02536116    0.00000000    3.92595344
     atom    8 type  1   force =     0.06032958    0.00481562   -2.09630161
     atom    9 type  1   force =    -0.00667348    0.00006960    9.83234840
     atom   10 type  1   force =     0.01487576    0.00129928    3.96558533
     atom   11 type  1   force =    -0.54905601    0.11523895   -7.97428501
     atom   12 type  1   force =    -0.01443416   -0.00053435    3.91484010
     atom   13 type  1   force =     0.54905516   -0.11523890   -7.97428441
     atom   14 type  1   force =     0.00667272   -0.00006960    9.83234754
     atom   15 type  1   force =    -0.06886813   -0.01960496   -1.87323836
     atom   16 type  1   force =     0.06032958   -0.00481562   -2.09630161
     atom   17 type  1   force =    -0.00667348   -0.00006960    9.83234840
     atom   18 type  1   force =     0.01487576   -0.00129928    3.96558533
     atom   19 type  1   force =    -0.54905601   -0.11523895   -7.97428501
     atom   20 type  1   force =    -0.01443416    0.00053435    3.91484010
     atom   21 type  1   force =     0.54905516    0.11523890   -7.97428441
     atom   22 type  1   force =     0.00667272    0.00006960    9.83234754
     atom   23 type  1   force =    -0.06886813    0.01960496   -1.87323836
     atom   24 type  1   force =    -0.10383394   -0.00000000   -2.06024273
     atom   25 type  1   force =     0.00000077   -0.00000000    9.83893237
     atom   26 type  1   force =     0.02495071    0.00000000    3.92466820
     atom   27 type  1   force =     0.00000071   -0.00000000   -7.59590775
     atom   28 type  1   force =    -0.02583392   -0.00000000    3.95575694
     atom   29 type  1   force =    -0.00000000   -0.00000000   -8.35266187
     atom   30 type  1   force =    -0.00000006    0.00000000    9.82576353
     atom   31 type  1   force =     0.12091112    0.00000000   -1.90929750
     atom   32 type  1   force =     0.00000071    0.00000000   -6.74874263
     atom   33 type  2   force =     0.00000032   -0.00000000  -31.31150724
     The local contribution  to forces
     atom    1 type  1   force =    -0.00031227    0.00000000    8.39349191
     atom    2 type  1   force =     0.02760989   -0.00000000   -3.96778236
     atom    3 type  1   force =    -0.11237421   -0.00000000    1.92592468
     atom    4 type  1   force =     0.00007051    0.00000000   -9.87255853
     atom    5 type  1   force =     0.11230579    0.00000000    2.03125609
     atom    6 type  1   force =     0.00001852    0.00000000   -9.88718888
     atom    7 type  1   force =    -0.02729481    0.00000000   -3.93917130
     atom    8 type  1   force =    -0.06190516   -0.00489763    2.08015088
     atom    9 type  1   force =     0.00725517   -0.00049093   -9.87949535
     atom   10 type  1   force =    -0.01491900   -0.00179176   -3.97909357
     atom   11 type  1   force =     0.55015866   -0.11489660    7.99021316
     atom   12 type  1   force =     0.01473159    0.00095850   -3.92746579
     atom   13 type  1   force =    -0.54956371    0.11597418    7.98940802
     atom   14 type  1   force =    -0.00738743   -0.00002235   -9.87857907
     atom   15 type  1   force =     0.07046208    0.01993258    1.85881429
     atom   16 type  1   force =    -0.06190516    0.00489763    2.08015088
     atom   17 type  1   force =     0.00725517    0.00049093   -9.87949535
     atom   18 type  1   force =    -0.01491900    0.00179176   -3.97909357
     atom   19 type  1   force =     0.55015866    0.11489660    7.99021316
     atom   20 type  1   force =     0.01473159   -0.00095850   -3.92746579
     atom   21 type  1   force =    -0.54956371   -0.11597418    7.98940802
     atom   22 type  1   force =    -0.00738743    0.00002235   -9.87857907
     atom   23 type  1   force =     0.07046208   -0.01993258    1.85881429
     atom   24 type  1   force =     0.10526501   -0.00000000    2.04425463
     atom   25 type  1   force =     0.00071323    0.00000000   -9.88616041
     atom   26 type  1   force =    -0.02595552    0.00000000   -3.93757573
     atom   27 type  1   force =    -0.00064103   -0.00000000    7.61210923
     atom   28 type  1   force =     0.02717992    0.00000000   -3.96914577
     atom   29 type  1   force =    -0.00045787   -0.00000000    8.36933575
     atom   30 type  1   force =     0.00001376    0.00000000   -9.87167382
     atom   31 type  1   force =    -0.12285425    0.00000000    1.89479434
     atom   32 type  1   force =     0.00012960   -0.00000000    6.73818644
     atom   33 type  2   force =     0.00001787    0.00000000   31.59888641
     The core correction contribution to forces
     atom    1 type  1   force =    -0.00002255    0.00000000    0.00418283
     atom    2 type  1   force =     0.00010256   -0.00000000    0.00017356
     atom    3 type  1   force =    -0.00006487    0.00000000   -0.00036940
     atom    4 type  1   force =     0.00001147    0.00000000   -0.00428337
     atom    5 type  1   force =     0.00005732    0.00000000   -0.00043139
     atom    6 type  1   force =    -0.00000233    0.00000000   -0.00453726
     atom    7 type  1   force =    -0.00008408    0.00000000    0.00027086
     atom    8 type  1   force =    -0.00010813   -0.00001337   -0.00042137
     atom    9 type  1   force =    -0.00001088   -0.00000387   -0.00439329
     atom   10 type  1   force =     0.00001875   -0.00003292    0.00020724
     atom   11 type  1   force =     0.00003863    0.00002124    0.00431381
     atom   12 type  1   force =    -0.00000413    0.00001452    0.00033516
     atom   13 type  1   force =    -0.00001145    0.00003737    0.00425922
     atom   14 type  1   force =     0.00002086   -0.00000219   -0.00434560
     atom   15 type  1   force =     0.00009212   -0.00000151   -0.00021195
     atom   16 type  1   force =    -0.00010813    0.00001337   -0.00042137
     atom   17 type  1   force =    -0.00001088    0.00000387   -0.00439329
     atom   18 type  1   force =     0.00001875    0.00003292    0.00020724
     atom   19 type  1   force =     0.00003863   -0.00002124    0.00431381
     atom   20 type  1   force =    -0.00000413   -0.00001452    0.00033516
     atom   21 type  1   force =    -0.00001145   -0.00003737    0.00425922
     atom   22 type  1   force =     0.00002086    0.00000219   -0.00434560
     atom   23 type  1   force =     0.00009212    0.00000151   -0.00021195
     atom   24 type  1   force =     0.00009485    0.00000000   -0.00040834
     atom   25 type  1   force =     0.00002258    0.00000000   -0.00447380
     atom   26 type  1   force =    -0.00002046    0.00000000    0.00030896
     atom   27 type  1   force =    -0.00000943   -0.00000000    0.00457730
     atom   28 type  1   force =     0.00005784    0.00000000    0.00022747
     atom   29 type  1   force =    -0.00004627    0.00000000    0.00415109
     atom   30 type  1   force =    -0.00000267    0.00000000   -0.00425656
     atom   31 type  1   force =    -0.00009637   -0.00000000   -0.00022219
     atom   32 type  1   force =     0.00000984    0.00000000    0.00054806
     atom   33 type  2   force =     0.00000000    0.00000000    0.00000000
     The Hubbard contrib.    to forces
     atom    1 type  1   force =     0.00000000    0.00000000    0.00000000
     atom    2 type  1   force =     0.00000000    0.00000000    0.00000000
     atom    3 type  1   force =     0.00000000    0.00000000    0.00000000
     atom    4 type  1   force =     0.00000000    0.00000000    0.00000000
     atom    5 type  1   force =     0.00000000    0.00000000    0.00000000
     atom    6 type  1   force =     0.00000000    0.00000000    0.00000000
     atom    7 type  1   force =     0.00000000    0.00000000    0.00000000
     atom    8 type  1   force =     0.00000000    0.00000000    0.00000000
     atom    9 type  1   force =     0.00000000    0.00000000    0.00000000
     atom   10 type  1   force =     0.00000000    0.00000000    0.00000000
     atom   11 type  1   force =     0.00000000    0.00000000    0.00000000
     atom   12 type  1   force =     0.00000000    0.00000000    0.00000000
     atom   13 type  1   force =     0.00000000    0.00000000    0.00000000
     atom   14 type  1   force =     0.00000000    0.00000000    0.00000000
     atom   15 type  1   force =     0.00000000    0.00000000    0.00000000
     atom   16 type  1   force =     0.00000000    0.00000000    0.00000000
     atom   17 type  1   force =     0.00000000    0.00000000    0.00000000
     atom   18 type  1   force =     0.00000000    0.00000000    0.00000000
     atom   19 type  1   force =     0.00000000    0.00000000    0.00000000
     atom   20 type  1   force =     0.00000000    0.00000000    0.00000000
     atom   21 type  1   force =     0.00000000    0.00000000    0.00000000
     atom   22 type  1   force =     0.00000000    0.00000000    0.00000000
     atom   23 type  1   force =     0.00000000    0.00000000    0.00000000
     atom   24 type  1   force =     0.00000000    0.00000000    0.00000000
     atom   25 type  1   force =     0.00000000    0.00000000    0.00000000
     atom   26 type  1   force =     0.00000000    0.00000000    0.00000000
     atom   27 type  1   force =     0.00000000    0.00000000    0.00000000
     atom   28 type  1   force =     0.00000000    0.00000000    0.00000000
     atom   29 type  1   force =     0.00000000    0.00000000    0.00000000
     atom   30 type  1   force =     0.00000000    0.00000000    0.00000000
     atom   31 type  1   force =     0.00000000    0.00000000    0.00000000
     atom   32 type  1   force =     0.00000000    0.00000000    0.00000000
     atom   33 type  2   force =     0.00000000    0.00000000    0.00000000
     The SCF correction term to forces
     atom    1 type  1   force =     0.00000141    0.00000000    0.00000342
     atom    2 type  1   force =    -0.00000701    0.00000000    0.00001111
     atom    3 type  1   force =     0.00000217    0.00000000    0.00000304
     atom    4 type  1   force =     0.00000665   -0.00000000    0.00000483
     atom    5 type  1   force =    -0.00000220   -0.00000000    0.00000813
     atom    6 type  1   force =    -0.00000678   -0.00000000    0.00000844
     atom    7 type  1   force =     0.00000711   -0.00000000    0.00000669
     atom    8 type  1   force =     0.00000652   -0.00000018    0.00000550
     atom    9 type  1   force =    -0.00000001    0.00000020    0.00000472
     atom   10 type  1   force =    -0.00000441    0.00000006    0.00001051
     atom   11 type  1   force =    -0.00000117   -0.00000021    0.00000196
     atom   12 type  1   force =     0.00000429   -0.00000010    0.00000724
     atom   13 type  1   force =     0.00000119    0.00000023   -0.00000121
     atom   14 type  1   force =     0.00000015   -0.00000020    0.00000854
     atom   15 type  1   force =    -0.00000653    0.00000013    0.00000579
     atom   16 type  1   force =     0.00000652    0.00000018    0.00000550
     atom   17 type  1   force =    -0.00000001   -0.00000020    0.00000472
     atom   18 type  1   force =    -0.00000441   -0.00000006    0.00001051
     atom   19 type  1   force =    -0.00000117    0.00000021    0.00000196
     atom   20 type  1   force =     0.00000429    0.00000010    0.00000724
     atom   21 type  1   force =     0.00000119   -0.00000023   -0.00000121
     atom   22 type  1   force =     0.00000015    0.00000020    0.00000854
     atom   23 type  1   force =    -0.00000653   -0.00000013    0.00000579
     atom   24 type  1   force =    -0.00000218    0.00000000    0.00000829
     atom   25 type  1   force =    -0.00000680    0.00000000    0.00000836
     atom   26 type  1   force =     0.00000714    0.00000000    0.00000693
     atom   27 type  1   force =    -0.00000144   -0.00000000   -0.00000270
     atom   28 type  1   force =    -0.00000700   -0.00000000    0.00001092
     atom   29 type  1   force =     0.00000141   -0.00000000    0.00000348
     atom   30 type  1   force =     0.00000665    0.00000000    0.00000487
     atom   31 type  1   force =     0.00000222   -0.00000000    0.00000295
     atom   32 type  1   force =    -0.00000143    0.00000000   -0.00000273
     atom   33 type  2   force =    -0.00000004    0.00000000   -0.00000683

     Total force =     0.027005     Total SCF correction =     0.000046

     Writing all to output data dir ./temp2/AlwithNa_0D002.save/

     General routines

     Parallel routines

   This run was terminated on:  11:38:29  21Mar2025

   JOB DONE.