     Program PWSCF v.7.2 starts on 20Mar2025 at 21:16: 1

     Reading input from Al111slabWithNa_0D001Ha.sc.in

     Current dimensions of program PWSCF are:
     Max number of different atomic species (ntypx) = 10
     Max number of k-points (npk) =  40000
     Max angular momentum in pseudopotentials (lmaxx) =  4

     K-points division:     npool     =      12
     R & G space division:  proc/nbgrp/npool/nimage =      16
     Subspace diagonalization in iterative solution of the eigenvalue problem:
     a serial algorithm will be used

     Using Slab Decomposition

     bravais-lattice index     =            0
     lattice parameter (alat)  =      18.6834  a.u.
     unit-cell volume          =   11425.3995 (a.u.)^3
     number of atoms/cell      =           33
     number of atomic types    =            2
     number of electrons       =       105.00
     number of Kohn-Sham states=           64
     kinetic-energy cutoff     =     100.0000  Ry
     charge density cutoff     =     400.0000  Ry
     scf convergence threshold =      1.0E-09
     mixing beta               =       0.7000
     number of iterations used =            8  plain     mixing
     Exchange-correlation= PBE
                           (   1   4   3   4   0   0   0)

     celldm(1)=  18.683402  celldm(2)=   0.000000  celldm(3)=   0.000000
     celldm(4)=   0.000000  celldm(5)=   0.000000  celldm(6)=   0.000000

     crystal axes: (cart. coord. in units of alat)
               a(1) = (   1.000000   0.000000   0.000000 )
               a(2) = (   0.000000   0.577350   0.000000 )
               a(3) = (   0.000000   0.000000   3.034340 )

     reciprocal axes: (cart. coord. in units 2 pi/alat)
               b(1) = (  1.000000  0.000000  0.000000 )
               b(2) = (  0.000000  1.732051  0.000000 )
               b(3) = (  0.000000  0.000000  0.329561 )

     PseudoPot. # 1 for Al read from file:
     ./Al.upf
     MD5 check sum: a92309766db89a6b54a5f8790cc4d69e
     Pseudo is Norm-conserving + core correction, Zval =  3.0
     Generated using ONCVPSP code by D. R. Hamann
     Using radial grid of 1876 points,  6 beta functions with:
                l(1) =   0
                l(2) =   0
                l(3) =   1
                l(4) =   1
                l(5) =   2
                l(6) =   2

     PseudoPot. # 2 for Na read from file:
     ./Na.upf
     MD5 check sum: ed5af011864af3d1529ce3b51bbccf87
     Pseudo is Norm-conserving, Zval =  9.0
     Generated using ONCVPSP code by D. R. Hamann
     Using radial grid of 1992 points,  4 beta functions with:
                l(1) =   0
                l(2) =   0
                l(3) =   1
                l(4) =   1

     atomic species   valence    mass     pseudopotential
        Al             3.00    26.00000     Al( 1.00)
        Na             9.00    23.00000     Na( 1.00)

     No symmetry found

   Cartesian axes

     site n.     atom                  positions (alat units)
         1           Al  tau(   1) = (   0.0000000   0.0000000   1.1636163  )
         2           Al  tau(   2) = (   0.3333333   0.0000000   1.6350208  )
         3           Al  tau(   3) = (   0.6666666   0.0000000   1.3993186  )
         4           Al  tau(   4) = (   0.0000000   0.0000000   1.8707232  )
         5           Al  tau(   5) = (   0.1666667   0.2886751   1.3993186  )
         6           Al  tau(   6) = (   0.5000000   0.2886751   1.8707232  )
         7           Al  tau(   7) = (   0.8333333   0.2886751   1.6350208  )
         8           Al  tau(   8) = (   0.9166667   0.4330127   1.3993186  )
         9           Al  tau(   9) = (   0.2500001   0.4330127   1.8707232  )
        10           Al  tau(  10) = (   0.5833333   0.4330127   1.6350208  )
        11           Al  tau(  11) = (   0.2500001   0.4330127   1.1636163  )
        12           Al  tau(  12) = (   0.0833334   0.1443376   1.6350208  )
        13           Al  tau(  13) = (   0.7500000   0.1443376   1.1636163  )
        14           Al  tau(  14) = (   0.7500000   0.1443376   1.8707232  )
        15           Al  tau(  15) = (   0.4166666   0.1443376   1.3993186  )
        16           Al  tau(  16) = (   0.9166667   0.1443376   1.3993186  )
        17           Al  tau(  17) = (   0.2500001   0.1443376   1.8707232  )
        18           Al  tau(  18) = (   0.5833333   0.1443376   1.6350208  )
        19           Al  tau(  19) = (   0.2500001   0.1443376   1.1636163  )
        20           Al  tau(  20) = (   0.0833334   0.4330127   1.6350208  )
        21           Al  tau(  21) = (   0.7500000   0.4330127   1.1636163  )
        22           Al  tau(  22) = (   0.7500000   0.4330127   1.8707232  )
        23           Al  tau(  23) = (   0.4166666   0.4330127   1.3993186  )
        24           Al  tau(  24) = (   0.1666667   0.0000000   1.3993186  )
        25           Al  tau(  25) = (   0.5000000   0.0000000   1.8707232  )
        26           Al  tau(  26) = (   0.8333333   0.0000000   1.6350208  )
        27           Al  tau(  27) = (   0.5000000   0.0000000   1.1636163  )
        28           Al  tau(  28) = (   0.3333333   0.2886751   1.6350208  )
        29           Al  tau(  29) = (   0.0000000   0.2886751   1.1636163  )
        30           Al  tau(  30) = (   0.0000000   0.2886751   1.8707232  )
        31           Al  tau(  31) = (   0.6666666   0.2886751   1.3993186  )
        32           Al  tau(  32) = (   0.5000000   0.2886751   1.1636163  )
        33           Na  tau(  33) = (   0.5000000   0.2886751   0.8799585  )

     number of k points=    72  Fermi-Dirac smearing, width (Ry)=  0.0032
                       cart. coord. in units 2pi/alat
        k(    1) = (   0.0416667   0.0721688   0.0000000), wk =   0.0277778
        k(    2) = (   0.0416667   0.2165063   0.0000000), wk =   0.0277778
        k(    3) = (   0.0416667   0.3608439   0.0000000), wk =   0.0277778
        k(    4) = (   0.0416667   0.5051815   0.0000000), wk =   0.0277778
        k(    5) = (   0.0416667   0.6495190   0.0000000), wk =   0.0277778
        k(    6) = (   0.0416667   0.7938566   0.0000000), wk =   0.0277778
        k(    7) = (   0.0416667  -0.7938566   0.0000000), wk =   0.0277778
        k(    8) = (   0.0416667  -0.6495190   0.0000000), wk =   0.0277778
        k(    9) = (   0.0416667  -0.5051815   0.0000000), wk =   0.0277778
        k(   10) = (   0.0416667  -0.3608439   0.0000000), wk =   0.0277778
        k(   11) = (   0.0416667  -0.2165063   0.0000000), wk =   0.0277778
        k(   12) = (   0.0416667  -0.0721688   0.0000000), wk =   0.0277778
        k(   13) = (   0.1250000   0.0721688   0.0000000), wk =   0.0277778
        k(   14) = (   0.1250000   0.2165063   0.0000000), wk =   0.0277778
        k(   15) = (   0.1250000   0.3608439   0.0000000), wk =   0.0277778
        k(   16) = (   0.1250000   0.5051815   0.0000000), wk =   0.0277778
        k(   17) = (   0.1250000   0.6495190   0.0000000), wk =   0.0277778
        k(   18) = (   0.1250000   0.7938566   0.0000000), wk =   0.0277778
        k(   19) = (   0.1250000  -0.7938566   0.0000000), wk =   0.0277778
        k(   20) = (   0.1250000  -0.6495190   0.0000000), wk =   0.0277778
        k(   21) = (   0.1250000  -0.5051815   0.0000000), wk =   0.0277778
        k(   22) = (   0.1250000  -0.3608439   0.0000000), wk =   0.0277778
        k(   23) = (   0.1250000  -0.2165063   0.0000000), wk =   0.0277778
        k(   24) = (   0.1250000  -0.0721688   0.0000000), wk =   0.0277778
        k(   25) = (   0.2083333   0.0721688   0.0000000), wk =   0.0277778
        k(   26) = (   0.2083333   0.2165063   0.0000000), wk =   0.0277778
        k(   27) = (   0.2083333   0.3608439   0.0000000), wk =   0.0277778
        k(   28) = (   0.2083333   0.5051815   0.0000000), wk =   0.0277778
        k(   29) = (   0.2083333   0.6495190   0.0000000), wk =   0.0277778
        k(   30) = (   0.2083333   0.7938566   0.0000000), wk =   0.0277778
        k(   31) = (   0.2083333  -0.7938566   0.0000000), wk =   0.0277778
        k(   32) = (   0.2083333  -0.6495190   0.0000000), wk =   0.0277778
        k(   33) = (   0.2083333  -0.5051815   0.0000000), wk =   0.0277778
        k(   34) = (   0.2083333  -0.3608439   0.0000000), wk =   0.0277778
        k(   35) = (   0.2083333  -0.2165063   0.0000000), wk =   0.0277778
        k(   36) = (   0.2083333  -0.0721688   0.0000000), wk =   0.0277778
        k(   37) = (   0.2916667   0.0721688   0.0000000), wk =   0.0277778
        k(   38) = (   0.2916667   0.2165063   0.0000000), wk =   0.0277778
        k(   39) = (   0.2916667   0.3608439   0.0000000), wk =   0.0277778
        k(   40) = (   0.2916667   0.5051815   0.0000000), wk =   0.0277778
        k(   41) = (   0.2916667   0.6495190   0.0000000), wk =   0.0277778
        k(   42) = (   0.2916667   0.7938566   0.0000000), wk =   0.0277778
        k(   43) = (   0.2916667  -0.7938566   0.0000000), wk =   0.0277778
        k(   44) = (   0.2916667  -0.6495190   0.0000000), wk =   0.0277778
        k(   45) = (   0.2916667  -0.5051815   0.0000000), wk =   0.0277778
        k(   46) = (   0.2916667  -0.3608439   0.0000000), wk =   0.0277778
        k(   47) = (   0.2916667  -0.2165063   0.0000000), wk =   0.0277778
        k(   48) = (   0.2916667  -0.0721688   0.0000000), wk =   0.0277778
        k(   49) = (   0.3750000   0.0721688   0.0000000), wk =   0.0277778
        k(   50) = (   0.3750000   0.2165063   0.0000000), wk =   0.0277778
        k(   51) = (   0.3750000   0.3608439   0.0000000), wk =   0.0277778
        k(   52) = (   0.3750000   0.5051815   0.0000000), wk =   0.0277778
        k(   53) = (   0.3750000   0.6495190   0.0000000), wk =   0.0277778
        k(   54) = (   0.3750000   0.7938566   0.0000000), wk =   0.0277778
        k(   55) = (   0.3750000  -0.7938566   0.0000000), wk =   0.0277778
        k(   56) = (   0.3750000  -0.6495190   0.0000000), wk =   0.0277778
        k(   57) = (   0.3750000  -0.5051815   0.0000000), wk =   0.0277778
        k(   58) = (   0.3750000  -0.3608439   0.0000000), wk =   0.0277778
        k(   59) = (   0.3750000  -0.2165063   0.0000000), wk =   0.0277778
        k(   60) = (   0.3750000  -0.0721688   0.0000000), wk =   0.0277778
        k(   61) = (   0.4583333   0.0721688   0.0000000), wk =   0.0277778
        k(   62) = (   0.4583333   0.2165063   0.0000000), wk =   0.0277778
        k(   63) = (   0.4583333   0.3608439   0.0000000), wk =   0.0277778
        k(   64) = (   0.4583333   0.5051815   0.0000000), wk =   0.0277778
        k(   65) = (   0.4583333   0.6495190   0.0000000), wk =   0.0277778
        k(   66) = (   0.4583333   0.7938566   0.0000000), wk =   0.0277778
        k(   67) = (   0.4583333  -0.7938566   0.0000000), wk =   0.0277778
        k(   68) = (   0.4583333  -0.6495190   0.0000000), wk =   0.0277778
        k(   69) = (   0.4583333  -0.5051815   0.0000000), wk =   0.0277778
        k(   70) = (   0.4583333  -0.3608439   0.0000000), wk =   0.0277778
        k(   71) = (   0.4583333  -0.2165063   0.0000000), wk =   0.0277778
        k(   72) = (   0.4583333  -0.0721688   0.0000000), wk =   0.0277778

     Initial potential from superposition of free atoms

[...]
     atom   18 type  1   force =    -0.00029689    0.00002834   -0.00353172
     atom   19 type  1   force =     0.00047237   -0.00003956   -0.00488596
     atom   20 type  1   force =     0.00037495   -0.00024818   -0.00469068
     atom   21 type  1   force =    -0.00023495   -0.00023962   -0.00492033
     atom   22 type  1   force =    -0.00099160    0.00008076    0.00247954
     atom   23 type  1   force =     0.00032619   -0.00041740    0.00299743
     atom   24 type  1   force =     0.00005753    0.00000000    0.00455261
     atom   25 type  1   force =     0.00041654    0.00000000    0.00319691
     atom   26 type  1   force =    -0.00075322    0.00000000   -0.00458204
     atom   27 type  1   force =    -0.00057311    0.00000000   -0.00813148
     atom   28 type  1   force =     0.00053784    0.00000000   -0.00373182
     atom   29 type  1   force =     0.00023158    0.00000000   -0.00198175
     atom   30 type  1   force =     0.00005823    0.00000000    0.00159851
     atom   31 type  1   force =    -0.00064783   -0.00000000    0.00306948
     atom   32 type  1   force =    -0.00001994   -0.00000000    0.01509049
     atom   33 type  2   force =     0.00000558   -0.00000000   -0.00102810
     The non-local contrib.  to forces
     atom    1 type  1   force =     0.00034711   -0.00000000   -0.03706083
     atom    2 type  1   force =    -0.00148476   -0.00000000   -0.00353577
     atom    3 type  1   force =     0.00096140   -0.00000000    0.00661053
     atom    4 type  1   force =    -0.00016378   -0.00000000    0.03820806
     atom    5 type  1   force =    -0.00084002   -0.00000000    0.00756770
     atom    6 type  1   force =     0.00002158    0.00000000    0.04194664
     atom    7 type  1   force =     0.00122518    0.00000000   -0.00505942
     atom    8 type  1   force =     0.00164191    0.00021450    0.00740593
     atom    9 type  1   force =     0.00012417    0.00004497    0.03979887
     atom   10 type  1   force =    -0.00026125    0.00049274   -0.00394210
     atom   11 type  1   force =    -0.00066805   -0.00032890   -0.03884394
     atom   12 type  1   force =     0.00006658   -0.00019209   -0.00610263
     atom   13 type  1   force =     0.00028180   -0.00052982   -0.03801663
     atom   14 type  1   force =    -0.00028914    0.00002041    0.03908738
     atom   15 type  1   force =    -0.00136107    0.00010969    0.00383294
     atom   16 type  1   force =     0.00164191   -0.00021450    0.00740593
     atom   17 type  1   force =     0.00012417   -0.00004497    0.03979887
     atom   18 type  1   force =    -0.00026125   -0.00049274   -0.00394210
     atom   19 type  1   force =    -0.00066805    0.00032890   -0.03884394
     atom   20 type  1   force =     0.00006658    0.00019209   -0.00610263
     atom   21 type  1   force =     0.00028180    0.00052982   -0.03801663
     atom   22 type  1   force =    -0.00028914   -0.00002041    0.03908738
     atom   23 type  1   force =    -0.00136107   -0.00010969    0.00383294
     atom   24 type  1   force =    -0.00147708    0.00000000    0.00719811
     atom   25 type  1   force =    -0.00031781    0.00000000    0.04096534
     atom   26 type  1   force =     0.00029288    0.00000000   -0.00567495
     atom   27 type  1   force =     0.00008619    0.00000000   -0.04253684
     atom   28 type  1   force =    -0.00087267   -0.00000000   -0.00427994
     atom   29 type  1   force =     0.00073054   -0.00000000   -0.03658830
     atom   30 type  1   force =     0.00004211   -0.00000000    0.03778562
     atom   31 type  1   force =     0.00138415   -0.00000000    0.00401125
     atom   32 type  1   force =    -0.00015918    0.00000000    0.01156648
     atom   33 type  2   force =    -0.00001387   -0.00000000   -0.33314872
     The ionic contribution  to forces
     atom    1 type  1   force =    -0.00000000   -0.00000000   -8.37606502
     atom    2 type  1   force =    -0.02536111   -0.00000000    3.95345377
     atom    3 type  1   force =     0.11081009   -0.00000000   -1.94142688
     atom    4 type  1   force =    -0.00000006   -0.00000000    9.82567551
     atom    5 type  1   force =    -0.11081017   -0.00000000   -2.04750200
     atom    6 type  1   force =     0.00000077   -0.00000000    9.83912590
     atom    7 type  1   force =     0.02536116    0.00000000    3.92595344
     atom    8 type  1   force =     0.06032958    0.00481562   -2.09630161
     atom    9 type  1   force =    -0.00667348    0.00006960    9.83234840
     atom   10 type  1   force =     0.01487576    0.00129928    3.96558533
     atom   11 type  1   force =    -0.54905601    0.11523895   -7.97428501
     atom   12 type  1   force =    -0.01443416   -0.00053435    3.91484010
     atom   13 type  1   force =     0.54905516   -0.11523890   -7.97428441
     atom   14 type  1   force =     0.00667272   -0.00006960    9.83234754
     atom   15 type  1   force =    -0.06886813   -0.01960496   -1.87323836
     atom   16 type  1   force =     0.06032958   -0.00481562   -2.09630161
     atom   17 type  1   force =    -0.00667348   -0.00006960    9.83234840
     atom   18 type  1   force =     0.01487576   -0.00129928    3.96558533
     atom   19 type  1   force =    -0.54905601   -0.11523895   -7.97428501
     atom   20 type  1   force =    -0.01443416    0.00053435    3.91484010
     atom   21 type  1   force =     0.54905516    0.11523890   -7.97428441
     atom   22 type  1   force =     0.00667272    0.00006960    9.83234754
     atom   23 type  1   force =    -0.06886813    0.01960496   -1.87323836
     atom   24 type  1   force =    -0.10383394   -0.00000000   -2.06024273
     atom   25 type  1   force =     0.00000077   -0.00000000    9.83893237
     atom   26 type  1   force =     0.02495071    0.00000000    3.92466820
     atom   27 type  1   force =     0.00000071   -0.00000000   -7.59590775
     atom   28 type  1   force =    -0.02583392   -0.00000000    3.95575694
     atom   29 type  1   force =    -0.00000000   -0.00000000   -8.35266187
     atom   30 type  1   force =    -0.00000006    0.00000000    9.82576353
     atom   31 type  1   force =     0.12091112    0.00000000   -1.90929750
     atom   32 type  1   force =     0.00000071    0.00000000   -6.74874263
     atom   33 type  2   force =     0.00000032   -0.00000000  -31.31150724
     The local contribution  to forces
     atom    1 type  1   force =    -0.00031811   -0.00000000    8.39703169
     atom    2 type  1   force =     0.02763045   -0.00000000   -3.96435616
     atom    3 type  1   force =    -0.11239563   -0.00000000    1.92940859
     atom    4 type  1   force =     0.00007519   -0.00000000   -9.86887668
     atom    5 type  1   force =     0.11232520    0.00000000    2.03473094
     atom    6 type  1   force =     0.00001217    0.00000000   -9.88353972
     atom    7 type  1   force =    -0.02732469    0.00000000   -3.93574822
     atom    8 type  1   force =    -0.06191286   -0.00489510    2.08361932
     atom    9 type  1   force =     0.00726528   -0.00048732   -9.87582359
     atom   10 type  1   force =    -0.01492779   -0.00178752   -3.97565329
     atom   11 type  1   force =     0.55015859   -0.11489176    7.99366431
     atom   12 type  1   force =     0.01474450    0.00096010   -3.92403582
     atom   13 type  1   force =    -0.54956123    0.11597105    7.99285920
     atom   14 type  1   force =    -0.00740065   -0.00002930   -9.87489829
     atom   15 type  1   force =     0.07046849    0.01991513    1.86234011
     atom   16 type  1   force =    -0.06191286    0.00489510    2.08361932
     atom   17 type  1   force =     0.00726528    0.00048732   -9.87582359
     atom   18 type  1   force =    -0.01492779    0.00178752   -3.97565329
     atom   19 type  1   force =     0.55015859    0.11489176    7.99366431
     atom   20 type  1   force =     0.01474450   -0.00096010   -3.92403582
     atom   21 type  1   force =    -0.54956123   -0.11597105    7.99285920
     atom   22 type  1   force =    -0.00740065    0.00002930   -9.87489829
     atom   23 type  1   force =     0.07046849   -0.01991513    1.86234011
     atom   24 type  1   force =     0.10527098   -0.00000000    2.04773661
     atom   25 type  1   force =     0.00071219   -0.00000000   -9.88251089
     atom   26 type  1   force =    -0.02597971   -0.00000000   -3.93415740
     atom   27 type  1   force =    -0.00064429   -0.00000000    7.61547730
     atom   28 type  1   force =     0.02719025    0.00000000   -3.96570574
     atom   29 type  1   force =    -0.00045897    0.00000000    8.37284795
     atom   30 type  1   force =     0.00001766    0.00000000   -9.86798367
     atom   31 type  1   force =    -0.12284515   -0.00000000    1.89830299
     atom   32 type  1   force =     0.00013462   -0.00000000    6.74146201
     atom   33 type  2   force =     0.00002635    0.00000000   31.61280724
     The core correction contribution to forces
     atom    1 type  1   force =    -0.00002266    0.00000000    0.00419039
     atom    2 type  1   force =     0.00010384   -0.00000000    0.00016926
     atom    3 type  1   force =    -0.00006591    0.00000000   -0.00036507
     atom    4 type  1   force =     0.00001146   -0.00000000   -0.00426447
     atom    5 type  1   force =     0.00005844    0.00000000   -0.00042913
     atom    6 type  1   force =    -0.00000253    0.00000000   -0.00452374
     atom    7 type  1   force =    -0.00008580   -0.00000000    0.00026770
     atom    8 type  1   force =    -0.00010865   -0.00001334   -0.00041955
     atom    9 type  1   force =    -0.00001106   -0.00000408   -0.00437744
     atom   10 type  1   force =     0.00001844   -0.00003296    0.00020508
     atom   11 type  1   force =     0.00003831    0.00002143    0.00431360
     atom   12 type  1   force =    -0.00000392    0.00001467    0.00033248
     atom   13 type  1   force =    -0.00001107    0.00003717    0.00425901
     atom   14 type  1   force =     0.00002093   -0.00000207   -0.00432950
     atom   15 type  1   force =     0.00009238   -0.00000254   -0.00020330
     atom   16 type  1   force =    -0.00010865    0.00001334   -0.00041955
     atom   17 type  1   force =    -0.00001106    0.00000408   -0.00437744
     atom   18 type  1   force =     0.00001844    0.00003296    0.00020508
     atom   19 type  1   force =     0.00003831   -0.00002143    0.00431360
     atom   20 type  1   force =    -0.00000392   -0.00001467    0.00033248
     atom   21 type  1   force =    -0.00001107   -0.00003717    0.00425901
     atom   22 type  1   force =     0.00002093    0.00000207   -0.00432950
     atom   23 type  1   force =     0.00009238    0.00000254   -0.00020330
     atom   24 type  1   force =     0.00009532   -0.00000000   -0.00040579
     atom   25 type  1   force =     0.00002269   -0.00000000   -0.00446133
     atom   26 type  1   force =    -0.00002159   -0.00000000    0.00030526
     atom   27 type  1   force =    -0.00000972   -0.00000000    0.00457222
     atom   28 type  1   force =     0.00005857    0.00000000    0.00022534
     atom   29 type  1   force =    -0.00004610    0.00000000    0.00415645
     atom   30 type  1   force =    -0.00000286    0.00000000   -0.00423745
     atom   31 type  1   force =    -0.00009555   -0.00000000   -0.00021472
     atom   32 type  1   force =     0.00000996   -0.00000000    0.00054108
     atom   33 type  2   force =     0.00000000    0.00000000    0.00000000
     The Hubbard contrib.    to forces
     atom    1 type  1   force =     0.00000000    0.00000000    0.00000000
     atom    2 type  1   force =     0.00000000    0.00000000    0.00000000
     atom    3 type  1   force =     0.00000000    0.00000000    0.00000000
     atom    4 type  1   force =     0.00000000    0.00000000    0.00000000
     atom    5 type  1   force =     0.00000000    0.00000000    0.00000000
     atom    6 type  1   force =     0.00000000    0.00000000    0.00000000
     atom    7 type  1   force =     0.00000000    0.00000000    0.00000000
     atom    8 type  1   force =     0.00000000    0.00000000    0.00000000
     atom    9 type  1   force =     0.00000000    0.00000000    0.00000000
     atom   10 type  1   force =     0.00000000    0.00000000    0.00000000
     atom   11 type  1   force =     0.00000000    0.00000000    0.00000000
     atom   12 type  1   force =     0.00000000    0.00000000    0.00000000
     atom   13 type  1   force =     0.00000000    0.00000000    0.00000000
     atom   14 type  1   force =     0.00000000    0.00000000    0.00000000
     atom   15 type  1   force =     0.00000000    0.00000000    0.00000000
     atom   16 type  1   force =     0.00000000    0.00000000    0.00000000
     atom   17 type  1   force =     0.00000000    0.00000000    0.00000000
     atom   18 type  1   force =     0.00000000    0.00000000    0.00000000
     atom   19 type  1   force =     0.00000000    0.00000000    0.00000000
     atom   20 type  1   force =     0.00000000    0.00000000    0.00000000
     atom   21 type  1   force =     0.00000000    0.00000000    0.00000000
     atom   22 type  1   force =     0.00000000    0.00000000    0.00000000
     atom   23 type  1   force =     0.00000000    0.00000000    0.00000000
     atom   24 type  1   force =     0.00000000    0.00000000    0.00000000
     atom   25 type  1   force =     0.00000000    0.00000000    0.00000000
     atom   26 type  1   force =     0.00000000    0.00000000    0.00000000
     atom   27 type  1   force =     0.00000000    0.00000000    0.00000000
     atom   28 type  1   force =     0.00000000    0.00000000    0.00000000
     atom   29 type  1   force =     0.00000000    0.00000000    0.00000000
     atom   30 type  1   force =     0.00000000    0.00000000    0.00000000
     atom   31 type  1   force =     0.00000000    0.00000000    0.00000000
     atom   32 type  1   force =     0.00000000    0.00000000    0.00000000
     atom   33 type  2   force =     0.00000000    0.00000000    0.00000000
     The SCF correction term to forces
     atom    1 type  1   force =     0.00000608    0.00000000   -0.00000056
     atom    2 type  1   force =    -0.00000439    0.00000000    0.00000720
     atom    3 type  1   force =    -0.00000240    0.00000000    0.00000306
     atom    4 type  1   force =     0.00000139    0.00000000    0.00000586
     atom    5 type  1   force =     0.00000227   -0.00000000    0.00000173
     atom    6 type  1   force =    -0.00000129   -0.00000000    0.00000693
     atom    7 type  1   force =     0.00000449   -0.00000000    0.00001218
     atom    8 type  1   force =     0.00000562   -0.00000007    0.00000329
     atom    9 type  1   force =    -0.00000463    0.00000020    0.00000504
     atom   10 type  1   force =    -0.00000205    0.00000013    0.00000873
     atom   11 type  1   force =    -0.00000047   -0.00000017    0.00000053
     atom   12 type  1   force =     0.00000195   -0.00000014    0.00001066
     atom   13 type  1   force =     0.00000040    0.00000012   -0.00000203
     atom   14 type  1   force =     0.00000454   -0.00000019    0.00000788
     atom   15 type  1   force =    -0.00000548    0.00000009    0.00000150
     atom   16 type  1   force =     0.00000562    0.00000007    0.00000329
     atom   17 type  1   force =    -0.00000463   -0.00000020    0.00000504
     atom   18 type  1   force =    -0.00000205   -0.00000013    0.00000873
     atom   19 type  1   force =    -0.00000047    0.00000017    0.00000053
     atom   20 type  1   force =     0.00000195    0.00000014    0.00001066
     atom   21 type  1   force =     0.00000040   -0.00000012   -0.00000203
     atom   22 type  1   force =     0.00000454    0.00000019    0.00000788
     atom   23 type  1   force =    -0.00000548   -0.00000009    0.00000150
     atom   24 type  1   force =     0.00000225    0.00000000    0.00000187
     atom   25 type  1   force =    -0.00000130    0.00000000    0.00000689
     atom   26 type  1   force =     0.00000450    0.00000000    0.00001232
     atom   27 type  1   force =    -0.00000600    0.00000000   -0.00000096
     atom   28 type  1   force =    -0.00000438   -0.00000000    0.00000705
     atom   29 type  1   force =     0.00000611   -0.00000000   -0.00000052
     atom   30 type  1   force =     0.00000138   -0.00000000    0.00000595
     atom   31 type  1   force =    -0.00000240   -0.00000000    0.00000293
     atom   32 type  1   force =    -0.00000604   -0.00000000   -0.00000099
     atom   33 type  2   force =    -0.00000723   -0.00000000    0.00000111

     Total force =     0.026903     Total SCF correction =     0.000041

     Writing all to output data dir ./temp2/AlwithNa_0D001.save/

     General routines

     Parallel routines

   This run was terminated on:  21:23:21  20Mar2025

   JOB DONE.