     Program PWSCF v.7.2 starts on 20Mar2025 at 21:17:31

     Reading input from Al111slabWithNa_0D008Ha.sc.in

     Current dimensions of program PWSCF are:
     Max number of different atomic species (ntypx) = 10
     Max number of k-points (npk) =  40000
     Max angular momentum in pseudopotentials (lmaxx) =  4

     K-points division:     npool     =      12
     R & G space division:  proc/nbgrp/npool/nimage =      16
     Subspace diagonalization in iterative solution of the eigenvalue problem:
     a serial algorithm will be used

     Using Slab Decomposition

     bravais-lattice index     =            0
     lattice parameter (alat)  =      18.6834  a.u.
     unit-cell volume          =   11425.3995 (a.u.)^3
     number of atoms/cell      =           33
     number of atomic types    =            2
     number of electrons       =       105.00
     number of Kohn-Sham states=           64
     kinetic-energy cutoff     =     100.0000  Ry
     charge density cutoff     =     400.0000  Ry
     scf convergence threshold =      1.0E-09
     mixing beta               =       0.7000
     number of iterations used =            8  plain     mixing
     Exchange-correlation= PBE
                           (   1   4   3   4   0   0   0)

     celldm(1)=  18.683402  celldm(2)=   0.000000  celldm(3)=   0.000000
     celldm(4)=   0.000000  celldm(5)=   0.000000  celldm(6)=   0.000000

     crystal axes: (cart. coord. in units of alat)
               a(1) = (   1.000000   0.000000   0.000000 )
               a(2) = (   0.000000   0.577350   0.000000 )
               a(3) = (   0.000000   0.000000   3.034340 )

     reciprocal axes: (cart. coord. in units 2 pi/alat)
               b(1) = (  1.000000  0.000000  0.000000 )
               b(2) = (  0.000000  1.732051  0.000000 )
               b(3) = (  0.000000  0.000000  0.329561 )

     PseudoPot. # 1 for Al read from file:
     ./Al.upf
     MD5 check sum: a92309766db89a6b54a5f8790cc4d69e
     Pseudo is Norm-conserving + core correction, Zval =  3.0
     Generated using ONCVPSP code by D. R. Hamann
     Using radial grid of 1876 points,  6 beta functions with:
                l(1) =   0
                l(2) =   0
                l(3) =   1
                l(4) =   1
                l(5) =   2
                l(6) =   2

     PseudoPot. # 2 for Na read from file:
     ./Na.upf
     MD5 check sum: ed5af011864af3d1529ce3b51bbccf87
     Pseudo is Norm-conserving, Zval =  9.0
     Generated using ONCVPSP code by D. R. Hamann
     Using radial grid of 1992 points,  4 beta functions with:
                l(1) =   0
                l(2) =   0
                l(3) =   1
                l(4) =   1

     atomic species   valence    mass     pseudopotential
        Al             3.00    26.00000     Al( 1.00)
        Na             9.00    23.00000     Na( 1.00)

     No symmetry found

   Cartesian axes

     site n.     atom                  positions (alat units)
         1           Al  tau(   1) = (   0.0000000   0.0000000   1.1636163  )
         2           Al  tau(   2) = (   0.3333333   0.0000000   1.6350208  )
         3           Al  tau(   3) = (   0.6666666   0.0000000   1.3993186  )
         4           Al  tau(   4) = (   0.0000000   0.0000000   1.8707232  )
         5           Al  tau(   5) = (   0.1666667   0.2886751   1.3993186  )
         6           Al  tau(   6) = (   0.5000000   0.2886751   1.8707232  )
         7           Al  tau(   7) = (   0.8333333   0.2886751   1.6350208  )
         8           Al  tau(   8) = (   0.9166667   0.4330127   1.3993186  )
         9           Al  tau(   9) = (   0.2500001   0.4330127   1.8707232  )
        10           Al  tau(  10) = (   0.5833333   0.4330127   1.6350208  )
        11           Al  tau(  11) = (   0.2500001   0.4330127   1.1636163  )
        12           Al  tau(  12) = (   0.0833334   0.1443376   1.6350208  )
        13           Al  tau(  13) = (   0.7500000   0.1443376   1.1636163  )
        14           Al  tau(  14) = (   0.7500000   0.1443376   1.8707232  )
        15           Al  tau(  15) = (   0.4166666   0.1443376   1.3993186  )
        16           Al  tau(  16) = (   0.9166667   0.1443376   1.3993186  )
        17           Al  tau(  17) = (   0.2500001   0.1443376   1.8707232  )
        18           Al  tau(  18) = (   0.5833333   0.1443376   1.6350208  )
        19           Al  tau(  19) = (   0.2500001   0.1443376   1.1636163  )
        20           Al  tau(  20) = (   0.0833334   0.4330127   1.6350208  )
        21           Al  tau(  21) = (   0.7500000   0.4330127   1.1636163  )
        22           Al  tau(  22) = (   0.7500000   0.4330127   1.8707232  )
        23           Al  tau(  23) = (   0.4166666   0.4330127   1.3993186  )
        24           Al  tau(  24) = (   0.1666667   0.0000000   1.3993186  )
        25           Al  tau(  25) = (   0.5000000   0.0000000   1.8707232  )
        26           Al  tau(  26) = (   0.8333333   0.0000000   1.6350208  )
        27           Al  tau(  27) = (   0.5000000   0.0000000   1.1636163  )
        28           Al  tau(  28) = (   0.3333333   0.2886751   1.6350208  )
        29           Al  tau(  29) = (   0.0000000   0.2886751   1.1636163  )
        30           Al  tau(  30) = (   0.0000000   0.2886751   1.8707232  )
        31           Al  tau(  31) = (   0.6666666   0.2886751   1.3993186  )
        32           Al  tau(  32) = (   0.5000000   0.2886751   1.1636163  )
        33           Na  tau(  33) = (   0.5000000   0.2886751   0.8799585  )

     number of k points=    72  Fermi-Dirac smearing, width (Ry)=  0.0032
                       cart. coord. in units 2pi/alat
        k(    1) = (   0.0416667   0.0721688   0.0000000), wk =   0.0277778
        k(    2) = (   0.0416667   0.2165063   0.0000000), wk =   0.0277778
        k(    3) = (   0.0416667   0.3608439   0.0000000), wk =   0.0277778
        k(    4) = (   0.0416667   0.5051815   0.0000000), wk =   0.0277778
        k(    5) = (   0.0416667   0.6495190   0.0000000), wk =   0.0277778
        k(    6) = (   0.0416667   0.7938566   0.0000000), wk =   0.0277778
        k(    7) = (   0.0416667  -0.7938566   0.0000000), wk =   0.0277778
        k(    8) = (   0.0416667  -0.6495190   0.0000000), wk =   0.0277778
        k(    9) = (   0.0416667  -0.5051815   0.0000000), wk =   0.0277778
        k(   10) = (   0.0416667  -0.3608439   0.0000000), wk =   0.0277778
        k(   11) = (   0.0416667  -0.2165063   0.0000000), wk =   0.0277778
        k(   12) = (   0.0416667  -0.0721688   0.0000000), wk =   0.0277778
        k(   13) = (   0.1250000   0.0721688   0.0000000), wk =   0.0277778
        k(   14) = (   0.1250000   0.2165063   0.0000000), wk =   0.0277778
        k(   15) = (   0.1250000   0.3608439   0.0000000), wk =   0.0277778
        k(   16) = (   0.1250000   0.5051815   0.0000000), wk =   0.0277778
        k(   17) = (   0.1250000   0.6495190   0.0000000), wk =   0.0277778
        k(   18) = (   0.1250000   0.7938566   0.0000000), wk =   0.0277778
        k(   19) = (   0.1250000  -0.7938566   0.0000000), wk =   0.0277778
        k(   20) = (   0.1250000  -0.6495190   0.0000000), wk =   0.0277778
        k(   21) = (   0.1250000  -0.5051815   0.0000000), wk =   0.0277778
        k(   22) = (   0.1250000  -0.3608439   0.0000000), wk =   0.0277778
        k(   23) = (   0.1250000  -0.2165063   0.0000000), wk =   0.0277778
        k(   24) = (   0.1250000  -0.0721688   0.0000000), wk =   0.0277778
        k(   25) = (   0.2083333   0.0721688   0.0000000), wk =   0.0277778
        k(   26) = (   0.2083333   0.2165063   0.0000000), wk =   0.0277778
        k(   27) = (   0.2083333   0.3608439   0.0000000), wk =   0.0277778
        k(   28) = (   0.2083333   0.5051815   0.0000000), wk =   0.0277778
        k(   29) = (   0.2083333   0.6495190   0.0000000), wk =   0.0277778
        k(   30) = (   0.2083333   0.7938566   0.0000000), wk =   0.0277778
        k(   31) = (   0.2083333  -0.7938566   0.0000000), wk =   0.0277778
        k(   32) = (   0.2083333  -0.6495190   0.0000000), wk =   0.0277778
        k(   33) = (   0.2083333  -0.5051815   0.0000000), wk =   0.0277778
        k(   34) = (   0.2083333  -0.3608439   0.0000000), wk =   0.0277778
        k(   35) = (   0.2083333  -0.2165063   0.0000000), wk =   0.0277778
        k(   36) = (   0.2083333  -0.0721688   0.0000000), wk =   0.0277778
        k(   37) = (   0.2916667   0.0721688   0.0000000), wk =   0.0277778
        k(   38) = (   0.2916667   0.2165063   0.0000000), wk =   0.0277778
        k(   39) = (   0.2916667   0.3608439   0.0000000), wk =   0.0277778
        k(   40) = (   0.2916667   0.5051815   0.0000000), wk =   0.0277778
        k(   41) = (   0.2916667   0.6495190   0.0000000), wk =   0.0277778
        k(   42) = (   0.2916667   0.7938566   0.0000000), wk =   0.0277778
        k(   43) = (   0.2916667  -0.7938566   0.0000000), wk =   0.0277778
        k(   44) = (   0.2916667  -0.6495190   0.0000000), wk =   0.0277778
        k(   45) = (   0.2916667  -0.5051815   0.0000000), wk =   0.0277778
        k(   46) = (   0.2916667  -0.3608439   0.0000000), wk =   0.0277778
        k(   47) = (   0.2916667  -0.2165063   0.0000000), wk =   0.0277778
        k(   48) = (   0.2916667  -0.0721688   0.0000000), wk =   0.0277778
        k(   49) = (   0.3750000   0.0721688   0.0000000), wk =   0.0277778
        k(   50) = (   0.3750000   0.2165063   0.0000000), wk =   0.0277778
        k(   51) = (   0.3750000   0.3608439   0.0000000), wk =   0.0277778
        k(   52) = (   0.3750000   0.5051815   0.0000000), wk =   0.0277778
        k(   53) = (   0.3750000   0.6495190   0.0000000), wk =   0.0277778
        k(   54) = (   0.3750000   0.7938566   0.0000000), wk =   0.0277778
        k(   55) = (   0.3750000  -0.7938566   0.0000000), wk =   0.0277778
        k(   56) = (   0.3750000  -0.6495190   0.0000000), wk =   0.0277778
        k(   57) = (   0.3750000  -0.5051815   0.0000000), wk =   0.0277778
        k(   58) = (   0.3750000  -0.3608439   0.0000000), wk =   0.0277778
        k(   59) = (   0.3750000  -0.2165063   0.0000000), wk =   0.0277778
        k(   60) = (   0.3750000  -0.0721688   0.0000000), wk =   0.0277778
        k(   61) = (   0.4583333   0.0721688   0.0000000), wk =   0.0277778
        k(   62) = (   0.4583333   0.2165063   0.0000000), wk =   0.0277778
        k(   63) = (   0.4583333   0.3608439   0.0000000), wk =   0.0277778
        k(   64) = (   0.4583333   0.5051815   0.0000000), wk =   0.0277778
        k(   65) = (   0.4583333   0.6495190   0.0000000), wk =   0.0277778
        k(   66) = (   0.4583333   0.7938566   0.0000000), wk =   0.0277778
        k(   67) = (   0.4583333  -0.7938566   0.0000000), wk =   0.0277778
        k(   68) = (   0.4583333  -0.6495190   0.0000000), wk =   0.0277778
        k(   69) = (   0.4583333  -0.5051815   0.0000000), wk =   0.0277778
        k(   70) = (   0.4583333  -0.3608439   0.0000000), wk =   0.0277778
        k(   71) = (   0.4583333  -0.2165063   0.0000000), wk =   0.0277778
        k(   72) = (   0.4583333  -0.0721688   0.0000000), wk =   0.0277778

     Initial potential from superposition of free atoms

[...]
     atom   18 type  1   force =    -0.00026418    0.00004690   -0.00383210
     atom   19 type  1   force =     0.00038476   -0.00003985   -0.00479827
     atom   20 type  1   force =     0.00029289   -0.00024497   -0.00490779
     atom   21 type  1   force =    -0.00015430   -0.00022853   -0.00483881
     atom   22 type  1   force =    -0.00085513    0.00002937    0.00243195
     atom   23 type  1   force =     0.00027313   -0.00040823    0.00335420
     atom   24 type  1   force =     0.00000296    0.00000000    0.00459178
     atom   25 type  1   force =     0.00038378    0.00000000    0.00297476
     atom   26 type  1   force =    -0.00062468   -0.00000000   -0.00485229
     atom   27 type  1   force =    -0.00054571   -0.00000000   -0.00780943
     atom   28 type  1   force =     0.00047074    0.00000000   -0.00399135
     atom   29 type  1   force =     0.00021960    0.00000000   -0.00192111
     atom   30 type  1   force =     0.00005082   -0.00000000    0.00181223
     atom   31 type  1   force =    -0.00054525   -0.00000000    0.00339185
     atom   32 type  1   force =    -0.00001314   -0.00000000    0.01596850
     atom   33 type  2   force =     0.00000590   -0.00000000   -0.00184724
     The non-local contrib.  to forces
     atom    1 type  1   force =     0.00033572   -0.00000000   -0.03643377
     atom    2 type  1   force =    -0.00132382   -0.00000000   -0.00415083
     atom    3 type  1   force =     0.00082731   -0.00000000    0.00706240
     atom    4 type  1   force =    -0.00016685    0.00000000    0.04038632
     atom    5 type  1   force =    -0.00068974   -0.00000000    0.00777217
     atom    6 type  1   force =     0.00000461    0.00000000    0.04338273
     atom    7 type  1   force =     0.00101704    0.00000000   -0.00545067
     atom    8 type  1   force =     0.00156303    0.00021562    0.00758465
     atom    9 type  1   force =     0.00008546    0.00002514    0.04160179
     atom   10 type  1   force =    -0.00030228    0.00046410   -0.00439174
     atom   11 type  1   force =    -0.00069214   -0.00031367   -0.03870943
     atom   12 type  1   force =     0.00008332   -0.00018017   -0.00637893
     atom   13 type  1   force =     0.00031310   -0.00054585   -0.03790261
     atom   14 type  1   force =    -0.00026382    0.00003209    0.04092276
     atom   15 type  1   force =    -0.00129254    0.00005849    0.00480583
     atom   16 type  1   force =     0.00156303   -0.00021562    0.00758465
     atom   17 type  1   force =     0.00008546   -0.00002514    0.04160179
     atom   18 type  1   force =    -0.00030228   -0.00046410   -0.00439174
     atom   19 type  1   force =    -0.00069214    0.00031367   -0.03870943
     atom   20 type  1   force =     0.00008332    0.00018017   -0.00637893
     atom   21 type  1   force =     0.00031310    0.00054585   -0.03790261
     atom   22 type  1   force =    -0.00026382   -0.00003209    0.04092276
     atom   23 type  1   force =    -0.00129254   -0.00005849    0.00480583
     atom   24 type  1   force =    -0.00139138    0.00000000    0.00744532
     atom   25 type  1   force =    -0.00030625   -0.00000000    0.04236175
     atom   26 type  1   force =     0.00016663   -0.00000000   -0.00609993
     atom   27 type  1   force =     0.00007371   -0.00000000   -0.04255943
     atom   28 type  1   force =    -0.00076718    0.00000000   -0.00469944
     atom   29 type  1   force =     0.00073861    0.00000000   -0.03619456
     atom   30 type  1   force =     0.00002012   -0.00000000    0.04000100
     atom   31 type  1   force =     0.00138871    0.00000000    0.00485318
     atom   32 type  1   force =    -0.00013814   -0.00000000    0.01188004
     atom   33 type  2   force =    -0.00001397   -0.00000000   -0.29793002
     The ionic contribution  to forces
     atom    1 type  1   force =    -0.00000000   -0.00000000   -8.37606502
     atom    2 type  1   force =    -0.02536111   -0.00000000    3.95345377
     atom    3 type  1   force =     0.11081009   -0.00000000   -1.94142688
     atom    4 type  1   force =    -0.00000006   -0.00000000    9.82567551
     atom    5 type  1   force =    -0.11081017   -0.00000000   -2.04750200
     atom    6 type  1   force =     0.00000077   -0.00000000    9.83912590
     atom    7 type  1   force =     0.02536116    0.00000000    3.92595344
     atom    8 type  1   force =     0.06032958    0.00481562   -2.09630161
     atom    9 type  1   force =    -0.00667348    0.00006960    9.83234840
     atom   10 type  1   force =     0.01487576    0.00129928    3.96558533
     atom   11 type  1   force =    -0.54905601    0.11523895   -7.97428501
     atom   12 type  1   force =    -0.01443416   -0.00053435    3.91484010
     atom   13 type  1   force =     0.54905516   -0.11523890   -7.97428441
     atom   14 type  1   force =     0.00667272   -0.00006960    9.83234754
     atom   15 type  1   force =    -0.06886813   -0.01960496   -1.87323836
     atom   16 type  1   force =     0.06032958   -0.00481562   -2.09630161
     atom   17 type  1   force =    -0.00667348   -0.00006960    9.83234840
     atom   18 type  1   force =     0.01487576   -0.00129928    3.96558533
     atom   19 type  1   force =    -0.54905601   -0.11523895   -7.97428501
     atom   20 type  1   force =    -0.01443416    0.00053435    3.91484010
     atom   21 type  1   force =     0.54905516    0.11523890   -7.97428441
     atom   22 type  1   force =     0.00667272    0.00006960    9.83234754
     atom   23 type  1   force =    -0.06886813    0.01960496   -1.87323836
     atom   24 type  1   force =    -0.10383394   -0.00000000   -2.06024273
     atom   25 type  1   force =     0.00000077   -0.00000000    9.83893237
     atom   26 type  1   force =     0.02495071    0.00000000    3.92466820
     atom   27 type  1   force =     0.00000071   -0.00000000   -7.59590775
     atom   28 type  1   force =    -0.02583392   -0.00000000    3.95575694
     atom   29 type  1   force =    -0.00000000   -0.00000000   -8.35266187
     atom   30 type  1   force =    -0.00000006    0.00000000    9.82576353
     atom   31 type  1   force =     0.12091112    0.00000000   -1.90929750
     atom   32 type  1   force =     0.00000071    0.00000000   -6.74874263
     atom   33 type  2   force =     0.00000032   -0.00000000  -31.31150724
     The local contribution  to forces
     atom    1 type  1   force =    -0.00030206    0.00000000    8.37308459
     atom    2 type  1   force =     0.02739284   -0.00000000   -3.98755152
     atom    3 type  1   force =    -0.11215411    0.00000000    1.90573640
     atom    4 type  1   force =     0.00008267   -0.00000000   -9.89404919
     atom    5 type  1   force =     0.11208405    0.00000000    2.01117625
     atom    6 type  1   force =     0.00001145    0.00000000   -9.90843008
     atom    7 type  1   force =    -0.02700548   -0.00000000   -3.95904179
     atom    8 type  1   force =    -0.06180690   -0.00490953    2.06006893
     atom    9 type  1   force =     0.00718456   -0.00049861   -9.90092960
     atom   10 type  1   force =    -0.01486103   -0.00177913   -3.99893721
     atom   11 type  1   force =     0.55009085   -0.11490577    7.97021084
     atom   12 type  1   force =     0.01465145    0.00094575   -3.94740333
     atom   13 type  1   force =    -0.54950726    0.11597495    7.96941553
     atom   14 type  1   force =    -0.00728933    0.00001087   -9.90006311
     atom   15 type  1   force =     0.07034525    0.01995385    1.83836895
     atom   16 type  1   force =    -0.06180690    0.00490953    2.06006893
     atom   17 type  1   force =     0.00718456    0.00049861   -9.90092960
     atom   18 type  1   force =    -0.01486103    0.00177913   -3.99893721
     atom   19 type  1   force =     0.55009085    0.11490577    7.97021084
     atom   20 type  1   force =     0.01465145   -0.00094575   -3.94740333
     atom   21 type  1   force =    -0.54950726   -0.11597495    7.96941553
     atom   22 type  1   force =    -0.00728933   -0.00001087   -9.90006311
     atom   23 type  1   force =     0.07034525   -0.01995385    1.83836895
     atom   24 type  1   force =     0.10514043    0.00000000    2.02412536
     atom   25 type  1   force =     0.00066928    0.00000000   -9.90744404
     atom   26 type  1   force =    -0.02573464    0.00000000   -3.95743428
     atom   27 type  1   force =    -0.00061377    0.00000000    7.59240184
     atom   28 type  1   force =     0.02702535   -0.00000000   -3.98898201
     atom   29 type  1   force =    -0.00046989   -0.00000000    8.34912519
     atom   30 type  1   force =     0.00003055    0.00000000   -9.89324107
     atom   31 type  1   force =    -0.12275121   -0.00000000    1.87442213
     atom   32 type  1   force =     0.00011334    0.00000000    6.71862180
     atom   33 type  2   force =     0.00001599    0.00000000   31.50652561
     The core correction contribution to forces
     atom    1 type  1   force =    -0.00002194    0.00000000    0.00414694
     atom    2 type  1   force =     0.00009288    0.00000000    0.00020541
     atom    3 type  1   force =    -0.00005640    0.00000000   -0.00039260
     atom    4 type  1   force =     0.00001163   -0.00000000   -0.00441601
     atom    5 type  1   force =     0.00004799    0.00000000   -0.00044177
     atom    6 type  1   force =    -0.00000140    0.00000000   -0.00462478
     atom    7 type  1   force =    -0.00007135   -0.00000000    0.00029019
     atom    8 type  1   force =    -0.00010351   -0.00001346   -0.00043088
     atom    9 type  1   force =    -0.00000815   -0.00000275   -0.00450305
     atom   10 type  1   force =     0.00002111   -0.00003109    0.00023058
     atom   11 type  1   force =     0.00004034    0.00002032    0.00430530
     atom   12 type  1   force =    -0.00000527    0.00001377    0.00034784
     atom   13 type  1   force =    -0.00001360    0.00003830    0.00425207
     atom   14 type  1   force =     0.00001895   -0.00000275   -0.00445734
     atom   15 type  1   force =     0.00008773    0.00000089   -0.00026318
     atom   16 type  1   force =    -0.00010351    0.00001346   -0.00043088
     atom   17 type  1   force =    -0.00000815    0.00000275   -0.00450305
     atom   18 type  1   force =     0.00002111    0.00003109    0.00023058
     atom   19 type  1   force =     0.00004034   -0.00002032    0.00430530
     atom   20 type  1   force =    -0.00000527   -0.00001377    0.00034784
     atom   21 type  1   force =    -0.00001360   -0.00003830    0.00425207
     atom   22 type  1   force =     0.00001895    0.00000275   -0.00445734
     atom   23 type  1   force =     0.00008773   -0.00000089   -0.00026318
     atom   24 type  1   force =     0.00008963   -0.00000000   -0.00042151
     atom   25 type  1   force =     0.00002172    0.00000000   -0.00455903
     atom   26 type  1   force =    -0.00001264    0.00000000    0.00032995
     atom   27 type  1   force =    -0.00000865    0.00000000    0.00457622
     atom   28 type  1   force =     0.00005149   -0.00000000    0.00024942
     atom   29 type  1   force =    -0.00004680    0.00000000    0.00412914
     atom   30 type  1   force =    -0.00000140    0.00000000   -0.00439140
     atom   31 type  1   force =    -0.00009563   -0.00000000   -0.00026639
     atom   32 type  1   force =     0.00000862    0.00000000    0.00052971
     atom   33 type  2   force =     0.00000000    0.00000000    0.00000000
     The Hubbard contrib.    to forces
     atom    1 type  1   force =     0.00000000    0.00000000    0.00000000
     atom    2 type  1   force =     0.00000000    0.00000000    0.00000000
     atom    3 type  1   force =     0.00000000    0.00000000    0.00000000
     atom    4 type  1   force =     0.00000000    0.00000000    0.00000000
     atom    5 type  1   force =     0.00000000    0.00000000    0.00000000
     atom    6 type  1   force =     0.00000000    0.00000000    0.00000000
     atom    7 type  1   force =     0.00000000    0.00000000    0.00000000
     atom    8 type  1   force =     0.00000000    0.00000000    0.00000000
     atom    9 type  1   force =     0.00000000    0.00000000    0.00000000
     atom   10 type  1   force =     0.00000000    0.00000000    0.00000000
     atom   11 type  1   force =     0.00000000    0.00000000    0.00000000
     atom   12 type  1   force =     0.00000000    0.00000000    0.00000000
     atom   13 type  1   force =     0.00000000    0.00000000    0.00000000
     atom   14 type  1   force =     0.00000000    0.00000000    0.00000000
     atom   15 type  1   force =     0.00000000    0.00000000    0.00000000
     atom   16 type  1   force =     0.00000000    0.00000000    0.00000000
     atom   17 type  1   force =     0.00000000    0.00000000    0.00000000
     atom   18 type  1   force =     0.00000000    0.00000000    0.00000000
     atom   19 type  1   force =     0.00000000    0.00000000    0.00000000
     atom   20 type  1   force =     0.00000000    0.00000000    0.00000000
     atom   21 type  1   force =     0.00000000    0.00000000    0.00000000
     atom   22 type  1   force =     0.00000000    0.00000000    0.00000000
     atom   23 type  1   force =     0.00000000    0.00000000    0.00000000
     atom   24 type  1   force =     0.00000000    0.00000000    0.00000000
     atom   25 type  1   force =     0.00000000    0.00000000    0.00000000
     atom   26 type  1   force =     0.00000000    0.00000000    0.00000000
     atom   27 type  1   force =     0.00000000    0.00000000    0.00000000
     atom   28 type  1   force =     0.00000000    0.00000000    0.00000000
     atom   29 type  1   force =     0.00000000    0.00000000    0.00000000
     atom   30 type  1   force =     0.00000000    0.00000000    0.00000000
     atom   31 type  1   force =     0.00000000    0.00000000    0.00000000
     atom   32 type  1   force =     0.00000000    0.00000000    0.00000000
     atom   33 type  2   force =     0.00000000    0.00000000    0.00000000
     The SCF correction term to forces
     atom    1 type  1   force =    -0.00000231   -0.00000000    0.00000167
     atom    2 type  1   force =    -0.00000503    0.00000000    0.00000441
     atom    3 type  1   force =     0.00000172   -0.00000000    0.00000106
     atom    4 type  1   force =     0.00000160    0.00000000    0.00000085
     atom    5 type  1   force =    -0.00000182    0.00000000    0.00000600
     atom    6 type  1   force =    -0.00000171    0.00000000    0.00000439
     atom    7 type  1   force =     0.00000520    0.00000000    0.00000443
     atom    8 type  1   force =    -0.00000074   -0.00000003    0.00000553
     atom    9 type  1   force =    -0.00000622    0.00000002    0.00000261
     atom   10 type  1   force =     0.00000224   -0.00000006    0.00000162
     atom   11 type  1   force =     0.00000171    0.00000001    0.00000071
     atom   12 type  1   force =    -0.00000246   -0.00000001    0.00000721
     atom   13 type  1   force =    -0.00000169    0.00000003    0.00000129
     atom   14 type  1   force =     0.00000634    0.00000001    0.00000277
     atom   15 type  1   force =     0.00000081   -0.00000004    0.00000164
     atom   16 type  1   force =    -0.00000074    0.00000003    0.00000553
     atom   17 type  1   force =    -0.00000622   -0.00000002    0.00000261
     atom   18 type  1   force =     0.00000224    0.00000006    0.00000162
     atom   19 type  1   force =     0.00000171   -0.00000001    0.00000071
     atom   20 type  1   force =    -0.00000246    0.00000001    0.00000721
     atom   21 type  1   force =    -0.00000169   -0.00000003    0.00000129
     atom   22 type  1   force =     0.00000634   -0.00000001    0.00000277
     atom   23 type  1   force =     0.00000081    0.00000004    0.00000164
     atom   24 type  1   force =    -0.00000178   -0.00000000    0.00000602
     atom   25 type  1   force =    -0.00000174   -0.00000000    0.00000439
     atom   26 type  1   force =     0.00000525   -0.00000000    0.00000445
     atom   27 type  1   force =     0.00000229    0.00000000    0.00000036
     atom   28 type  1   force =    -0.00000499   -0.00000000    0.00000442
     atom   29 type  1   force =    -0.00000233    0.00000000    0.00000166
     atom   30 type  1   force =     0.00000160   -0.00000000    0.00000085
     atom   31 type  1   force =     0.00000175    0.00000000    0.00000111
     atom   32 type  1   force =     0.00000232   -0.00000000    0.00000025
     atom   33 type  2   force =     0.00000354   -0.00000000   -0.00000214

     Total force =     0.027727     Total SCF correction =     0.000028

     Writing all to output data dir ./temp2/AlwithNa_0D008.save/

     General routines

     Parallel routines

   This run was terminated on:  21:25: 6  20Mar2025

   JOB DONE.