     Program PWSCF v.7.2 starts on 21Mar2025 at 11:23:24

     Reading input from Al111slabWithNa_M0D002Ha.sc.in

     Current dimensions of program PWSCF are:
     Max number of different atomic species (ntypx) = 10
     Max number of k-points (npk) =  40000
     Max angular momentum in pseudopotentials (lmaxx) =  4

     K-points division:     npool     =      12
     R & G space division:  proc/nbgrp/npool/nimage =      16
     Subspace diagonalization in iterative solution of the eigenvalue problem:
     a serial algorithm will be used

     Using Slab Decomposition

     bravais-lattice index     =            0
     lattice parameter (alat)  =      18.6834  a.u.
     unit-cell volume          =   11425.3995 (a.u.)^3
     number of atoms/cell      =           33
     number of atomic types    =            2
     number of electrons       =       105.00
     number of Kohn-Sham states=           64
     kinetic-energy cutoff     =     100.0000  Ry
     charge density cutoff     =     400.0000  Ry
     scf convergence threshold =      1.0E-09
     mixing beta               =       0.7000
     number of iterations used =            8  plain     mixing
     Exchange-correlation= PBE
                           (   1   4   3   4   0   0   0)

     celldm(1)=  18.683402  celldm(2)=   0.000000  celldm(3)=   0.000000
     celldm(4)=   0.000000  celldm(5)=   0.000000  celldm(6)=   0.000000

     crystal axes: (cart. coord. in units of alat)
               a(1) = (   1.000000   0.000000   0.000000 )
               a(2) = (   0.000000   0.577350   0.000000 )
               a(3) = (   0.000000   0.000000   3.034340 )

     reciprocal axes: (cart. coord. in units 2 pi/alat)
               b(1) = (  1.000000  0.000000  0.000000 )
               b(2) = (  0.000000  1.732051  0.000000 )
               b(3) = (  0.000000  0.000000  0.329561 )

     PseudoPot. # 1 for Al read from file:
     ./Al.upf
     MD5 check sum: a92309766db89a6b54a5f8790cc4d69e
     Pseudo is Norm-conserving + core correction, Zval =  3.0
     Generated using ONCVPSP code by D. R. Hamann
     Using radial grid of 1876 points,  6 beta functions with:
                l(1) =   0
                l(2) =   0
                l(3) =   1
                l(4) =   1
                l(5) =   2
                l(6) =   2

     PseudoPot. # 2 for Na read from file:
     ./Na.upf
     MD5 check sum: ed5af011864af3d1529ce3b51bbccf87
     Pseudo is Norm-conserving, Zval =  9.0
     Generated using ONCVPSP code by D. R. Hamann
     Using radial grid of 1992 points,  4 beta functions with:
                l(1) =   0
                l(2) =   0
                l(3) =   1
                l(4) =   1

     atomic species   valence    mass     pseudopotential
        Al             3.00    26.00000     Al( 1.00)
        Na             9.00    23.00000     Na( 1.00)

     No symmetry found

   Cartesian axes

     site n.     atom                  positions (alat units)
         1           Al  tau(   1) = (   0.0000000   0.0000000   1.1636163  )
         2           Al  tau(   2) = (   0.3333333   0.0000000   1.6350208  )
         3           Al  tau(   3) = (   0.6666666   0.0000000   1.3993186  )
         4           Al  tau(   4) = (   0.0000000   0.0000000   1.8707232  )
         5           Al  tau(   5) = (   0.1666667   0.2886751   1.3993186  )
         6           Al  tau(   6) = (   0.5000000   0.2886751   1.8707232  )
         7           Al  tau(   7) = (   0.8333333   0.2886751   1.6350208  )
         8           Al  tau(   8) = (   0.9166667   0.4330127   1.3993186  )
         9           Al  tau(   9) = (   0.2500001   0.4330127   1.8707232  )
        10           Al  tau(  10) = (   0.5833333   0.4330127   1.6350208  )
        11           Al  tau(  11) = (   0.2500001   0.4330127   1.1636163  )
        12           Al  tau(  12) = (   0.0833334   0.1443376   1.6350208  )
        13           Al  tau(  13) = (   0.7500000   0.1443376   1.1636163  )
        14           Al  tau(  14) = (   0.7500000   0.1443376   1.8707232  )
        15           Al  tau(  15) = (   0.4166666   0.1443376   1.3993186  )
        16           Al  tau(  16) = (   0.9166667   0.1443376   1.3993186  )
        17           Al  tau(  17) = (   0.2500001   0.1443376   1.8707232  )
        18           Al  tau(  18) = (   0.5833333   0.1443376   1.6350208  )
        19           Al  tau(  19) = (   0.2500001   0.1443376   1.1636163  )
        20           Al  tau(  20) = (   0.0833334   0.4330127   1.6350208  )
        21           Al  tau(  21) = (   0.7500000   0.4330127   1.1636163  )
        22           Al  tau(  22) = (   0.7500000   0.4330127   1.8707232  )
        23           Al  tau(  23) = (   0.4166666   0.4330127   1.3993186  )
        24           Al  tau(  24) = (   0.1666667   0.0000000   1.3993186  )
        25           Al  tau(  25) = (   0.5000000   0.0000000   1.8707232  )
        26           Al  tau(  26) = (   0.8333333   0.0000000   1.6350208  )
        27           Al  tau(  27) = (   0.5000000   0.0000000   1.1636163  )
        28           Al  tau(  28) = (   0.3333333   0.2886751   1.6350208  )
        29           Al  tau(  29) = (   0.0000000   0.2886751   1.1636163  )
        30           Al  tau(  30) = (   0.0000000   0.2886751   1.8707232  )
        31           Al  tau(  31) = (   0.6666666   0.2886751   1.3993186  )
        32           Al  tau(  32) = (   0.5000000   0.2886751   1.1636163  )
        33           Na  tau(  33) = (   0.5000000   0.2886751   0.8799585  )

     number of k points=    72  Fermi-Dirac smearing, width (Ry)=  0.0032
                       cart. coord. in units 2pi/alat
        k(    1) = (   0.0416667   0.0721688   0.0000000), wk =   0.0277778
        k(    2) = (   0.0416667   0.2165063   0.0000000), wk =   0.0277778
        k(    3) = (   0.0416667   0.3608439   0.0000000), wk =   0.0277778
        k(    4) = (   0.0416667   0.5051815   0.0000000), wk =   0.0277778
        k(    5) = (   0.0416667   0.6495190   0.0000000), wk =   0.0277778
        k(    6) = (   0.0416667   0.7938566   0.0000000), wk =   0.0277778
        k(    7) = (   0.0416667  -0.7938566   0.0000000), wk =   0.0277778
        k(    8) = (   0.0416667  -0.6495190   0.0000000), wk =   0.0277778
        k(    9) = (   0.0416667  -0.5051815   0.0000000), wk =   0.0277778
        k(   10) = (   0.0416667  -0.3608439   0.0000000), wk =   0.0277778
        k(   11) = (   0.0416667  -0.2165063   0.0000000), wk =   0.0277778
        k(   12) = (   0.0416667  -0.0721688   0.0000000), wk =   0.0277778
        k(   13) = (   0.1250000   0.0721688   0.0000000), wk =   0.0277778
        k(   14) = (   0.1250000   0.2165063   0.0000000), wk =   0.0277778
        k(   15) = (   0.1250000   0.3608439   0.0000000), wk =   0.0277778
        k(   16) = (   0.1250000   0.5051815   0.0000000), wk =   0.0277778
        k(   17) = (   0.1250000   0.6495190   0.0000000), wk =   0.0277778
        k(   18) = (   0.1250000   0.7938566   0.0000000), wk =   0.0277778
        k(   19) = (   0.1250000  -0.7938566   0.0000000), wk =   0.0277778
        k(   20) = (   0.1250000  -0.6495190   0.0000000), wk =   0.0277778
        k(   21) = (   0.1250000  -0.5051815   0.0000000), wk =   0.0277778
        k(   22) = (   0.1250000  -0.3608439   0.0000000), wk =   0.0277778
        k(   23) = (   0.1250000  -0.2165063   0.0000000), wk =   0.0277778
        k(   24) = (   0.1250000  -0.0721688   0.0000000), wk =   0.0277778
        k(   25) = (   0.2083333   0.0721688   0.0000000), wk =   0.0277778
        k(   26) = (   0.2083333   0.2165063   0.0000000), wk =   0.0277778
        k(   27) = (   0.2083333   0.3608439   0.0000000), wk =   0.0277778
        k(   28) = (   0.2083333   0.5051815   0.0000000), wk =   0.0277778
        k(   29) = (   0.2083333   0.6495190   0.0000000), wk =   0.0277778
        k(   30) = (   0.2083333   0.7938566   0.0000000), wk =   0.0277778
        k(   31) = (   0.2083333  -0.7938566   0.0000000), wk =   0.0277778
        k(   32) = (   0.2083333  -0.6495190   0.0000000), wk =   0.0277778
        k(   33) = (   0.2083333  -0.5051815   0.0000000), wk =   0.0277778
        k(   34) = (   0.2083333  -0.3608439   0.0000000), wk =   0.0277778
        k(   35) = (   0.2083333  -0.2165063   0.0000000), wk =   0.0277778
        k(   36) = (   0.2083333  -0.0721688   0.0000000), wk =   0.0277778
        k(   37) = (   0.2916667   0.0721688   0.0000000), wk =   0.0277778
        k(   38) = (   0.2916667   0.2165063   0.0000000), wk =   0.0277778
        k(   39) = (   0.2916667   0.3608439   0.0000000), wk =   0.0277778
        k(   40) = (   0.2916667   0.5051815   0.0000000), wk =   0.0277778
        k(   41) = (   0.2916667   0.6495190   0.0000000), wk =   0.0277778
        k(   42) = (   0.2916667   0.7938566   0.0000000), wk =   0.0277778
        k(   43) = (   0.2916667  -0.7938566   0.0000000), wk =   0.0277778
        k(   44) = (   0.2916667  -0.6495190   0.0000000), wk =   0.0277778
        k(   45) = (   0.2916667  -0.5051815   0.0000000), wk =   0.0277778
        k(   46) = (   0.2916667  -0.3608439   0.0000000), wk =   0.0277778
        k(   47) = (   0.2916667  -0.2165063   0.0000000), wk =   0.0277778
        k(   48) = (   0.2916667  -0.0721688   0.0000000), wk =   0.0277778
        k(   49) = (   0.3750000   0.0721688   0.0000000), wk =   0.0277778
        k(   50) = (   0.3750000   0.2165063   0.0000000), wk =   0.0277778
        k(   51) = (   0.3750000   0.3608439   0.0000000), wk =   0.0277778
        k(   52) = (   0.3750000   0.5051815   0.0000000), wk =   0.0277778
        k(   53) = (   0.3750000   0.6495190   0.0000000), wk =   0.0277778
        k(   54) = (   0.3750000   0.7938566   0.0000000), wk =   0.0277778
        k(   55) = (   0.3750000  -0.7938566   0.0000000), wk =   0.0277778
        k(   56) = (   0.3750000  -0.6495190   0.0000000), wk =   0.0277778
        k(   57) = (   0.3750000  -0.5051815   0.0000000), wk =   0.0277778
        k(   58) = (   0.3750000  -0.3608439   0.0000000), wk =   0.0277778
        k(   59) = (   0.3750000  -0.2165063   0.0000000), wk =   0.0277778
        k(   60) = (   0.3750000  -0.0721688   0.0000000), wk =   0.0277778
        k(   61) = (   0.4583333   0.0721688   0.0000000), wk =   0.0277778
        k(   62) = (   0.4583333   0.2165063   0.0000000), wk =   0.0277778
        k(   63) = (   0.4583333   0.3608439   0.0000000), wk =   0.0277778
        k(   64) = (   0.4583333   0.5051815   0.0000000), wk =   0.0277778
        k(   65) = (   0.4583333   0.6495190   0.0000000), wk =   0.0277778
        k(   66) = (   0.4583333   0.7938566   0.0000000), wk =   0.0277778
        k(   67) = (   0.4583333  -0.7938566   0.0000000), wk =   0.0277778
        k(   68) = (   0.4583333  -0.6495190   0.0000000), wk =   0.0277778
        k(   69) = (   0.4583333  -0.5051815   0.0000000), wk =   0.0277778
        k(   70) = (   0.4583333  -0.3608439   0.0000000), wk =   0.0277778
        k(   71) = (   0.4583333  -0.2165063   0.0000000), wk =   0.0277778
        k(   72) = (   0.4583333  -0.0721688   0.0000000), wk =   0.0277778

     Initial potential from superposition of free atoms

[...]
     atom   18 type  1   force =    -0.00029888    0.00001196   -0.00345345
     atom   19 type  1   force =     0.00047131   -0.00004994   -0.00483912
     atom   20 type  1   force =     0.00039288   -0.00024584   -0.00459276
     atom   21 type  1   force =    -0.00022965   -0.00023464   -0.00487210
     atom   22 type  1   force =    -0.00100806    0.00010779    0.00255714
     atom   23 type  1   force =     0.00033139   -0.00040268    0.00283571
     atom   24 type  1   force =     0.00006201    0.00000000    0.00453572
     atom   25 type  1   force =     0.00042479    0.00000000    0.00331877
     atom   26 type  1   force =    -0.00078103    0.00000000   -0.00446887
     atom   27 type  1   force =    -0.00058542    0.00000000   -0.00810753
     atom   28 type  1   force =     0.00053980   -0.00000000   -0.00366293
     atom   29 type  1   force =     0.00023662   -0.00000000   -0.00200402
     atom   30 type  1   force =     0.00006067    0.00000000    0.00159889
     atom   31 type  1   force =    -0.00065729   -0.00000000    0.00292177
     atom   32 type  1   force =    -0.00002467   -0.00000000    0.01489875
     atom   33 type  2   force =     0.00000574   -0.00000000   -0.00162666
     The non-local contrib.  to forces
     atom    1 type  1   force =     0.00034870   -0.00000000   -0.03741669
     atom    2 type  1   force =    -0.00153796    0.00000000   -0.00334467
     atom    3 type  1   force =     0.00099879    0.00000000    0.00639793
     atom    4 type  1   force =    -0.00015930    0.00000000    0.03745447
     atom    5 type  1   force =    -0.00088136    0.00000000    0.00745779
     atom    6 type  1   force =     0.00002556    0.00000000    0.04139774
     atom    7 type  1   force =     0.00129522    0.00000000   -0.00491011
     atom    8 type  1   force =     0.00166179    0.00021274    0.00732244
     atom    9 type  1   force =     0.00012908    0.00005472    0.03917000
     atom   10 type  1   force =    -0.00024880    0.00049062   -0.00386377
     atom   11 type  1   force =    -0.00065266   -0.00033714   -0.03881831
     atom   12 type  1   force =     0.00005842   -0.00019759   -0.00596387
     atom   13 type  1   force =     0.00026544   -0.00052106   -0.03799856
     atom   14 type  1   force =    -0.00028835    0.00001441    0.03844538
     atom   15 type  1   force =    -0.00136185    0.00016311    0.00342876
     atom   16 type  1   force =     0.00166179   -0.00021274    0.00732244
     atom   17 type  1   force =     0.00012908   -0.00005472    0.03917000
     atom   18 type  1   force =    -0.00024880   -0.00049062   -0.00386377
     atom   19 type  1   force =    -0.00065266    0.00033714   -0.03881831
     atom   20 type  1   force =     0.00005842    0.00019759   -0.00596387
     atom   21 type  1   force =     0.00026544    0.00052106   -0.03799856
     atom   22 type  1   force =    -0.00028835   -0.00001441    0.03844538
     atom   23 type  1   force =    -0.00136185   -0.00016311    0.00342876
     atom   24 type  1   force =    -0.00149263   -0.00000000    0.00707967
     atom   25 type  1   force =    -0.00032633   -0.00000000    0.04047141
     atom   26 type  1   force =     0.00034003   -0.00000000   -0.00549539
     atom   27 type  1   force =     0.00010383   -0.00000000   -0.04223934
     atom   28 type  1   force =    -0.00090139    0.00000000   -0.00420146
     atom   29 type  1   force =     0.00071925    0.00000000   -0.03685527
     atom   30 type  1   force =     0.00005440   -0.00000000    0.03702451
     atom   31 type  1   force =     0.00133321    0.00000000    0.00365889
     atom   32 type  1   force =    -0.00016197    0.00000000    0.01202515
     atom   33 type  2   force =    -0.00002071    0.00000000   -0.34086820
     The ionic contribution  to forces
     atom    1 type  1   force =    -0.00000000   -0.00000000   -8.37606502
     atom    2 type  1   force =    -0.02536111   -0.00000000    3.95345377
     atom    3 type  1   force =     0.11081009   -0.00000000   -1.94142688
     atom    4 type  1   force =    -0.00000006   -0.00000000    9.82567551
     atom    5 type  1   force =    -0.11081017   -0.00000000   -2.04750200
     atom    6 type  1   force =     0.00000077   -0.00000000    9.83912590
     atom    7 type  1   force =     0.02536116    0.00000000    3.92595344
     atom    8 type  1   force =     0.06032958    0.00481562   -2.09630161
     atom    9 type  1   force =    -0.00667348    0.00006960    9.83234840
     atom   10 type  1   force =     0.01487576    0.00129928    3.96558533
     atom   11 type  1   force =    -0.54905601    0.11523895   -7.97428501
     atom   12 type  1   force =    -0.01443416   -0.00053435    3.91484010
     atom   13 type  1   force =     0.54905516   -0.11523890   -7.97428441
     atom   14 type  1   force =     0.00667272   -0.00006960    9.83234754
     atom   15 type  1   force =    -0.06886813   -0.01960496   -1.87323836
     atom   16 type  1   force =     0.06032958   -0.00481562   -2.09630161
     atom   17 type  1   force =    -0.00667348   -0.00006960    9.83234840
     atom   18 type  1   force =     0.01487576   -0.00129928    3.96558533
     atom   19 type  1   force =    -0.54905601   -0.11523895   -7.97428501
     atom   20 type  1   force =    -0.01443416    0.00053435    3.91484010
     atom   21 type  1   force =     0.54905516    0.11523890   -7.97428441
     atom   22 type  1   force =     0.00667272    0.00006960    9.83234754
     atom   23 type  1   force =    -0.06886813    0.01960496   -1.87323836
     atom   24 type  1   force =    -0.10383394   -0.00000000   -2.06024273
     atom   25 type  1   force =     0.00000077   -0.00000000    9.83893237
     atom   26 type  1   force =     0.02495071    0.00000000    3.92466820
     atom   27 type  1   force =     0.00000071   -0.00000000   -7.59590775
     atom   28 type  1   force =    -0.02583392   -0.00000000    3.95575694
     atom   29 type  1   force =    -0.00000000   -0.00000000   -8.35266187
     atom   30 type  1   force =    -0.00000006    0.00000000    9.82576353
     atom   31 type  1   force =     0.12091112    0.00000000   -1.90929750
     atom   32 type  1   force =     0.00000071    0.00000000   -6.74874263
     atom   33 type  2   force =     0.00000032   -0.00000000  -31.31150724
     The local contribution  to forces
     atom    1 type  1   force =    -0.00031250    0.00000000    8.40780011
     atom    2 type  1   force =     0.02768464    0.00000000   -3.95392876
     atom    3 type  1   force =    -0.11246150    0.00000000    1.93999953
     atom    4 type  1   force =     0.00007001   -0.00000000   -9.85771514
     atom    5 type  1   force =     0.11238497   -0.00000000    2.04527326
     atom    6 type  1   force =     0.00001315   -0.00000000   -9.87247717
     atom    7 type  1   force =    -0.02740442   -0.00000000   -3.92530696
     atom    8 type  1   force =    -0.06192571   -0.00488613    2.09415522
     atom    9 type  1   force =     0.00727108   -0.00047394   -9.86470127
     atom   10 type  1   force =    -0.01494485   -0.00176921   -3.96517380
     atom   11 type  1   force =     0.55014250   -0.11487429    8.00415694
     atom   12 type  1   force =     0.01477366    0.00096279   -3.91359144
     atom   13 type  1   force =    -0.54954012    0.11595845    8.00335766
     atom   14 type  1   force =    -0.00741475   -0.00005089   -9.86374853
     atom   15 type  1   force =     0.07046943    0.01985125    1.87302763
     atom   16 type  1   force =    -0.06192571    0.00488613    2.09415522
     atom   17 type  1   force =     0.00727108    0.00047394   -9.86470127
     atom   18 type  1   force =    -0.01494485    0.00176921   -3.96517380
     atom   19 type  1   force =     0.55014250    0.11487429    8.00415694
     atom   20 type  1   force =     0.01477366   -0.00096279   -3.91359144
     atom   21 type  1   force =    -0.54954012   -0.11595845    8.00335766
     atom   22 type  1   force =    -0.00741475    0.00005089   -9.86374853
     atom   23 type  1   force =     0.07046943   -0.01985125    1.87302763
     atom   24 type  1   force =     0.10529330    0.00000000    2.05829932
     atom   25 type  1   force =     0.00072695    0.00000000   -9.87145731
     atom   26 type  1   force =    -0.02604872    0.00000000   -3.92373421
     atom   27 type  1   force =    -0.00067834    0.00000000    7.62569363
     atom   28 type  1   force =     0.02721621   -0.00000000   -3.95523738
     atom   29 type  1   force =    -0.00043793   -0.00000000    8.38354173
     atom   30 type  1   force =     0.00000996    0.00000000   -9.85680122
     atom   31 type  1   force =    -0.12281050   -0.00000000    1.90895605
     atom   32 type  1   force =     0.00012714   -0.00000000    6.75131419
     atom   33 type  2   force =     0.00002644   -0.00000000   31.65132458
     The core correction contribution to forces
     atom    1 type  1   force =    -0.00002274    0.00000000    0.00421506
     atom    2 type  1   force =     0.00010737    0.00000000    0.00015830
     atom    3 type  1   force =    -0.00006864    0.00000000   -0.00035216
     atom    4 type  1   force =     0.00001118   -0.00000000   -0.00421223
     atom    5 type  1   force =     0.00006134   -0.00000000   -0.00042233
     atom    6 type  1   force =    -0.00000279   -0.00000000   -0.00448503
     atom    7 type  1   force =    -0.00009058   -0.00000000    0.00025917
     atom    8 type  1   force =    -0.00010988   -0.00001320   -0.00041423
     atom    9 type  1   force =    -0.00001146   -0.00000471   -0.00433362
     atom   10 type  1   force =     0.00001760   -0.00003277    0.00020111
     atom   11 type  1   force =     0.00003720    0.00002200    0.00431117
     atom   12 type  1   force =    -0.00000329    0.00001505    0.00032457
     atom   13 type  1   force =    -0.00000988    0.00003657    0.00425706
     atom   14 type  1   force =     0.00002095   -0.00000171   -0.00428477
     atom   15 type  1   force =     0.00009241   -0.00000621   -0.00017866
     atom   16 type  1   force =    -0.00010988    0.00001320   -0.00041423
     atom   17 type  1   force =    -0.00001146    0.00000471   -0.00433362
     atom   18 type  1   force =     0.00001760    0.00003277    0.00020111
     atom   19 type  1   force =     0.00003720   -0.00002200    0.00431117
     atom   20 type  1   force =    -0.00000329   -0.00001505    0.00032457
     atom   21 type  1   force =    -0.00000988   -0.00003657    0.00425706
     atom   22 type  1   force =     0.00002095    0.00000171   -0.00428477
     atom   23 type  1   force =     0.00009241    0.00000621   -0.00017866
     atom   24 type  1   force =     0.00009633    0.00000000   -0.00039823
     atom   25 type  1   force =     0.00002332   -0.00000000   -0.00442661
     atom   26 type  1   force =    -0.00002491    0.00000000    0.00029479
     atom   27 type  1   force =    -0.00001101    0.00000000    0.00454999
     atom   28 type  1   force =     0.00006048   -0.00000000    0.00022117
     atom   29 type  1   force =    -0.00004526   -0.00000000    0.00417492
     atom   30 type  1   force =    -0.00000367    0.00000000   -0.00418474
     atom   31 type  1   force =    -0.00009216   -0.00000000   -0.00019334
     atom   32 type  1   force =     0.00001008   -0.00000000    0.00050628
     atom   33 type  2   force =     0.00000000    0.00000000    0.00000000
     The Hubbard contrib.    to forces
     atom    1 type  1   force =     0.00000000    0.00000000    0.00000000
     atom    2 type  1   force =     0.00000000    0.00000000    0.00000000
     atom    3 type  1   force =     0.00000000    0.00000000    0.00000000
     atom    4 type  1   force =     0.00000000    0.00000000    0.00000000
     atom    5 type  1   force =     0.00000000    0.00000000    0.00000000
     atom    6 type  1   force =     0.00000000    0.00000000    0.00000000
     atom    7 type  1   force =     0.00000000    0.00000000    0.00000000
     atom    8 type  1   force =     0.00000000    0.00000000    0.00000000
     atom    9 type  1   force =     0.00000000    0.00000000    0.00000000
     atom   10 type  1   force =     0.00000000    0.00000000    0.00000000
     atom   11 type  1   force =     0.00000000    0.00000000    0.00000000
     atom   12 type  1   force =     0.00000000    0.00000000    0.00000000
     atom   13 type  1   force =     0.00000000    0.00000000    0.00000000
     atom   14 type  1   force =     0.00000000    0.00000000    0.00000000
     atom   15 type  1   force =     0.00000000    0.00000000    0.00000000
     atom   16 type  1   force =     0.00000000    0.00000000    0.00000000
     atom   17 type  1   force =     0.00000000    0.00000000    0.00000000
     atom   18 type  1   force =     0.00000000    0.00000000    0.00000000
     atom   19 type  1   force =     0.00000000    0.00000000    0.00000000
     atom   20 type  1   force =     0.00000000    0.00000000    0.00000000
     atom   21 type  1   force =     0.00000000    0.00000000    0.00000000
     atom   22 type  1   force =     0.00000000    0.00000000    0.00000000
     atom   23 type  1   force =     0.00000000    0.00000000    0.00000000
     atom   24 type  1   force =     0.00000000    0.00000000    0.00000000
     atom   25 type  1   force =     0.00000000    0.00000000    0.00000000
     atom   26 type  1   force =     0.00000000    0.00000000    0.00000000
     atom   27 type  1   force =     0.00000000    0.00000000    0.00000000
     atom   28 type  1   force =     0.00000000    0.00000000    0.00000000
     atom   29 type  1   force =     0.00000000    0.00000000    0.00000000
     atom   30 type  1   force =     0.00000000    0.00000000    0.00000000
     atom   31 type  1   force =     0.00000000    0.00000000    0.00000000
     atom   32 type  1   force =     0.00000000    0.00000000    0.00000000
     atom   33 type  2   force =     0.00000000    0.00000000    0.00000000
     The SCF correction term to forces
     atom    1 type  1   force =     0.00000059   -0.00000000   -0.00000140
     atom    2 type  1   force =    -0.00000152   -0.00000000   -0.00000038
     atom    3 type  1   force =     0.00000087   -0.00000000   -0.00000054
     atom    4 type  1   force =     0.00000002   -0.00000000   -0.00000115
     atom    5 type  1   force =    -0.00000118    0.00000000   -0.00000008
     atom    6 type  1   force =     0.00000006    0.00000000    0.00000095
     atom    7 type  1   force =     0.00000189    0.00000000   -0.00000012
     atom    8 type  1   force =     0.00000062    0.00000024    0.00000108
     atom    9 type  1   force =    -0.00000147   -0.00000003    0.00000041
     atom   10 type  1   force =     0.00000141    0.00000012   -0.00000027
     atom   11 type  1   force =     0.00000029    0.00000042   -0.00000187
     atom   12 type  1   force =    -0.00000175   -0.00000006   -0.00000008
     atom   13 type  1   force =    -0.00000025   -0.00000042   -0.00000181
     atom   14 type  1   force =     0.00000137    0.00000000   -0.00000044
     atom   15 type  1   force =    -0.00000047   -0.00000051   -0.00000162
     atom   16 type  1   force =     0.00000062   -0.00000024    0.00000108
     atom   17 type  1   force =    -0.00000147    0.00000003    0.00000041
     atom   18 type  1   force =     0.00000141   -0.00000012   -0.00000027
     atom   19 type  1   force =     0.00000029   -0.00000042   -0.00000187
     atom   20 type  1   force =    -0.00000175    0.00000006   -0.00000008
     atom   21 type  1   force =    -0.00000025    0.00000042   -0.00000181
     atom   22 type  1   force =     0.00000137   -0.00000000   -0.00000044
     atom   23 type  1   force =    -0.00000047    0.00000051   -0.00000162
     atom   24 type  1   force =    -0.00000103   -0.00000000   -0.00000027
     atom   25 type  1   force =     0.00000008   -0.00000000    0.00000095
     atom   26 type  1   force =     0.00000187   -0.00000000   -0.00000023
     atom   27 type  1   force =    -0.00000061   -0.00000000   -0.00000203
     atom   28 type  1   force =    -0.00000156    0.00000000   -0.00000015
     atom   29 type  1   force =     0.00000057    0.00000000   -0.00000148
     atom   30 type  1   force =     0.00000003    0.00000000   -0.00000114
     atom   31 type  1   force =     0.00000104    0.00000000   -0.00000029
     atom   32 type  1   force =    -0.00000063    0.00000000   -0.00000221
     atom   33 type  2   force =    -0.00000031    0.00000000    0.00000435

     Total force =     0.026647     Total SCF correction =     0.000010

     Writing all to output data dir ./temp2/AlwithNa_M0D002.save/

     General routines

     Parallel routines

   This run was terminated on:  11:30:37  21Mar2025

   JOB DONE.