     Program PWSCF v.7.2 starts on 20Mar2025 at 22: 6:17

     Reading input from Al111slab_M0D001Ha.sc.in

     Current dimensions of program PWSCF are:
     Max number of different atomic species (ntypx) = 10
     Max number of k-points (npk) =  40000
     Max angular momentum in pseudopotentials (lmaxx) =  4
     Found identity + (  0.2500 -0.2500  0.0000) symmetry
     This is a supercell, fractional translations are disabled

     K-points division:     npool     =      12
     R & G space division:  proc/nbgrp/npool/nimage =      16
     Subspace diagonalization in iterative solution of the eigenvalue problem:
     a serial algorithm will be used

     Using Slab Decomposition

     bravais-lattice index     =            0
     lattice parameter (alat)  =      18.6834  a.u.
     unit-cell volume          =   11425.3995 (a.u.)^3
     number of atoms/cell      =           32
     number of atomic types    =            1
     number of electrons       =        96.00
     number of Kohn-Sham states=           58
     kinetic-energy cutoff     =     100.0000  Ry
     charge density cutoff     =     400.0000  Ry
     scf convergence threshold =      1.0E-09
     mixing beta               =       0.7000
     number of iterations used =            8  plain     mixing
     Exchange-correlation= PBE
                           (   1   4   3   4   0   0   0)

     celldm(1)=  18.683402  celldm(2)=   0.000000  celldm(3)=   0.000000
     celldm(4)=   0.000000  celldm(5)=   0.000000  celldm(6)=   0.000000

     crystal axes: (cart. coord. in units of alat)
               a(1) = (   1.000000   0.000000   0.000000 )
               a(2) = (   0.000000   0.577350   0.000000 )
               a(3) = (   0.000000   0.000000   3.034340 )

     reciprocal axes: (cart. coord. in units 2 pi/alat)
               b(1) = (  1.000000  0.000000  0.000000 )
               b(2) = (  0.000000  1.732051  0.000000 )
               b(3) = (  0.000000  0.000000  0.329561 )

     PseudoPot. # 1 for Al read from file:
     ./Al.upf
     MD5 check sum: a92309766db89a6b54a5f8790cc4d69e
     Pseudo is Norm-conserving + core correction, Zval =  3.0
     Generated using ONCVPSP code by D. R. Hamann
     Using radial grid of 1876 points,  6 beta functions with:
                l(1) =   0
                l(2) =   0
                l(3) =   1
                l(4) =   1
                l(5) =   2
                l(6) =   2

     atomic species   valence    mass     pseudopotential
        Al             3.00    26.00000     Al( 1.00)

     No symmetry found

   Cartesian axes

     site n.     atom                  positions (alat units)
         1           Al  tau(   1) = (   0.0000000   0.0000000   1.1636163  )
         2           Al  tau(   2) = (   0.3333333   0.0000000   1.6350208  )
         3           Al  tau(   3) = (   0.6666666   0.0000000   1.3993186  )
         4           Al  tau(   4) = (   0.0000000   0.0000000   1.8707232  )
         5           Al  tau(   5) = (   0.1666667   0.2886751   1.3993186  )
         6           Al  tau(   6) = (   0.5000000   0.2886751   1.8707232  )
         7           Al  tau(   7) = (   0.8333333   0.2886751   1.6350208  )
         8           Al  tau(   8) = (   0.9166667   0.4330127   1.3993186  )
         9           Al  tau(   9) = (   0.2500001   0.4330127   1.8707232  )
        10           Al  tau(  10) = (   0.5833333   0.4330127   1.6350208  )
        11           Al  tau(  11) = (   0.2500001   0.4330127   1.1636163  )
        12           Al  tau(  12) = (   0.0833334   0.1443376   1.6350208  )
        13           Al  tau(  13) = (   0.7500000   0.1443376   1.1636163  )
        14           Al  tau(  14) = (   0.7500000   0.1443376   1.8707232  )
        15           Al  tau(  15) = (   0.4166666   0.1443376   1.3993186  )
        16           Al  tau(  16) = (   0.9166667   0.1443376   1.3993186  )
        17           Al  tau(  17) = (   0.2500001   0.1443376   1.8707232  )
        18           Al  tau(  18) = (   0.5833333   0.1443376   1.6350208  )
        19           Al  tau(  19) = (   0.2500001   0.1443376   1.1636163  )
        20           Al  tau(  20) = (   0.0833334   0.4330127   1.6350208  )
        21           Al  tau(  21) = (   0.7500000   0.4330127   1.1636163  )
        22           Al  tau(  22) = (   0.7500000   0.4330127   1.8707232  )
        23           Al  tau(  23) = (   0.4166666   0.4330127   1.3993186  )
        24           Al  tau(  24) = (   0.1666667   0.0000000   1.3993186  )
        25           Al  tau(  25) = (   0.5000000   0.0000000   1.8707232  )
        26           Al  tau(  26) = (   0.8333333   0.0000000   1.6350208  )
        27           Al  tau(  27) = (   0.5000000   0.0000000   1.1636163  )
        28           Al  tau(  28) = (   0.3333333   0.2886751   1.6350208  )
        29           Al  tau(  29) = (   0.0000000   0.2886751   1.1636163  )
        30           Al  tau(  30) = (   0.0000000   0.2886751   1.8707232  )
        31           Al  tau(  31) = (   0.6666666   0.2886751   1.3993186  )
        32           Al  tau(  32) = (   0.5000000   0.2886751   1.1636163  )

     number of k points=    72  Fermi-Dirac smearing, width (Ry)=  0.0032
                       cart. coord. in units 2pi/alat
        k(    1) = (   0.0416667   0.0721688   0.0000000), wk =   0.0277778
        k(    2) = (   0.0416667   0.2165063   0.0000000), wk =   0.0277778
        k(    3) = (   0.0416667   0.3608439   0.0000000), wk =   0.0277778
        k(    4) = (   0.0416667   0.5051815   0.0000000), wk =   0.0277778
        k(    5) = (   0.0416667   0.6495190   0.0000000), wk =   0.0277778
        k(    6) = (   0.0416667   0.7938566   0.0000000), wk =   0.0277778
        k(    7) = (   0.0416667  -0.7938566   0.0000000), wk =   0.0277778
        k(    8) = (   0.0416667  -0.6495190   0.0000000), wk =   0.0277778
        k(    9) = (   0.0416667  -0.5051815   0.0000000), wk =   0.0277778
        k(   10) = (   0.0416667  -0.3608439   0.0000000), wk =   0.0277778
        k(   11) = (   0.0416667  -0.2165063   0.0000000), wk =   0.0277778
        k(   12) = (   0.0416667  -0.0721688   0.0000000), wk =   0.0277778
        k(   13) = (   0.1250000   0.0721688   0.0000000), wk =   0.0277778
        k(   14) = (   0.1250000   0.2165063   0.0000000), wk =   0.0277778
        k(   15) = (   0.1250000   0.3608439   0.0000000), wk =   0.0277778
        k(   16) = (   0.1250000   0.5051815   0.0000000), wk =   0.0277778
        k(   17) = (   0.1250000   0.6495190   0.0000000), wk =   0.0277778
        k(   18) = (   0.1250000   0.7938566   0.0000000), wk =   0.0277778
        k(   19) = (   0.1250000  -0.7938566   0.0000000), wk =   0.0277778
        k(   20) = (   0.1250000  -0.6495190   0.0000000), wk =   0.0277778
        k(   21) = (   0.1250000  -0.5051815   0.0000000), wk =   0.0277778
        k(   22) = (   0.1250000  -0.3608439   0.0000000), wk =   0.0277778
        k(   23) = (   0.1250000  -0.2165063   0.0000000), wk =   0.0277778
        k(   24) = (   0.1250000  -0.0721688   0.0000000), wk =   0.0277778
        k(   25) = (   0.2083333   0.0721688   0.0000000), wk =   0.0277778
        k(   26) = (   0.2083333   0.2165063   0.0000000), wk =   0.0277778
        k(   27) = (   0.2083333   0.3608439   0.0000000), wk =   0.0277778
        k(   28) = (   0.2083333   0.5051815   0.0000000), wk =   0.0277778
        k(   29) = (   0.2083333   0.6495190   0.0000000), wk =   0.0277778
        k(   30) = (   0.2083333   0.7938566   0.0000000), wk =   0.0277778
        k(   31) = (   0.2083333  -0.7938566   0.0000000), wk =   0.0277778
        k(   32) = (   0.2083333  -0.6495190   0.0000000), wk =   0.0277778
        k(   33) = (   0.2083333  -0.5051815   0.0000000), wk =   0.0277778
        k(   34) = (   0.2083333  -0.3608439   0.0000000), wk =   0.0277778
        k(   35) = (   0.2083333  -0.2165063   0.0000000), wk =   0.0277778
        k(   36) = (   0.2083333  -0.0721688   0.0000000), wk =   0.0277778
        k(   37) = (   0.2916667   0.0721688   0.0000000), wk =   0.0277778
        k(   38) = (   0.2916667   0.2165063   0.0000000), wk =   0.0277778
        k(   39) = (   0.2916667   0.3608439   0.0000000), wk =   0.0277778
        k(   40) = (   0.2916667   0.5051815   0.0000000), wk =   0.0277778
        k(   41) = (   0.2916667   0.6495190   0.0000000), wk =   0.0277778
        k(   42) = (   0.2916667   0.7938566   0.0000000), wk =   0.0277778
        k(   43) = (   0.2916667  -0.7938566   0.0000000), wk =   0.0277778
        k(   44) = (   0.2916667  -0.6495190   0.0000000), wk =   0.0277778
        k(   45) = (   0.2916667  -0.5051815   0.0000000), wk =   0.0277778
        k(   46) = (   0.2916667  -0.3608439   0.0000000), wk =   0.0277778
        k(   47) = (   0.2916667  -0.2165063   0.0000000), wk =   0.0277778
        k(   48) = (   0.2916667  -0.0721688   0.0000000), wk =   0.0277778
        k(   49) = (   0.3750000   0.0721688   0.0000000), wk =   0.0277778
        k(   50) = (   0.3750000   0.2165063   0.0000000), wk =   0.0277778
        k(   51) = (   0.3750000   0.3608439   0.0000000), wk =   0.0277778
        k(   52) = (   0.3750000   0.5051815   0.0000000), wk =   0.0277778
        k(   53) = (   0.3750000   0.6495190   0.0000000), wk =   0.0277778
        k(   54) = (   0.3750000   0.7938566   0.0000000), wk =   0.0277778
        k(   55) = (   0.3750000  -0.7938566   0.0000000), wk =   0.0277778
        k(   56) = (   0.3750000  -0.6495190   0.0000000), wk =   0.0277778
        k(   57) = (   0.3750000  -0.5051815   0.0000000), wk =   0.0277778
        k(   58) = (   0.3750000  -0.3608439   0.0000000), wk =   0.0277778
        k(   59) = (   0.3750000  -0.2165063   0.0000000), wk =   0.0277778
        k(   60) = (   0.3750000  -0.0721688   0.0000000), wk =   0.0277778
        k(   61) = (   0.4583333   0.0721688   0.0000000), wk =   0.0277778
        k(   62) = (   0.4583333   0.2165063   0.0000000), wk =   0.0277778
        k(   63) = (   0.4583333   0.3608439   0.0000000), wk =   0.0277778
        k(   64) = (   0.4583333   0.5051815   0.0000000), wk =   0.0277778
        k(   65) = (   0.4583333   0.6495190   0.0000000), wk =   0.0277778
        k(   66) = (   0.4583333   0.7938566   0.0000000), wk =   0.0277778
        k(   67) = (   0.4583333  -0.7938566   0.0000000), wk =   0.0277778
        k(   68) = (   0.4583333  -0.6495190   0.0000000), wk =   0.0277778
        k(   69) = (   0.4583333  -0.5051815   0.0000000), wk =   0.0277778
        k(   70) = (   0.4583333  -0.3608439   0.0000000), wk =   0.0277778
        k(   71) = (   0.4583333  -0.2165063   0.0000000), wk =   0.0277778
        k(   72) = (   0.4583333  -0.0721688   0.0000000), wk =   0.0277778

     Initial potential from superposition of free atoms

     starting charge      95.9217, renormalised to      96.0000

     negative rho (up, down):  2.622E-05 0.000E+00

     Adding external electric field

     Computed dipole along edir(3) :
        Dipole               -0.0000 Ry au,         -0.0000 Debye
        Dipole field         -0.0000 Ry au,

        E field amplitude [Ha a.u.]: -1.0000E-03
        Potential amp.       -0.0907 Ry
[...]
     atom   11 type  1   force =     0.00001812    0.00000000   -0.00224505
     atom   12 type  1   force =    -0.00000376    0.00000000   -0.00459342
     atom   13 type  1   force =     0.00001966   -0.00000000   -0.00224515
     atom   14 type  1   force =    -0.00001922   -0.00000000    0.00220585
     atom   15 type  1   force =     0.00000304    0.00000000    0.00463243
     atom   16 type  1   force =     0.00000379    0.00000000    0.00463199
     atom   17 type  1   force =    -0.00001848    0.00000000    0.00220597
     atom   18 type  1   force =    -0.00000345    0.00000000   -0.00459251
     atom   19 type  1   force =     0.00001813    0.00000000   -0.00224505
     atom   20 type  1   force =    -0.00000376   -0.00000000   -0.00459342
     atom   21 type  1   force =     0.00001966    0.00000000   -0.00224515
     atom   22 type  1   force =    -0.00001923   -0.00000000    0.00220585
     atom   23 type  1   force =     0.00000304   -0.00000000    0.00463243
     atom   24 type  1   force =     0.00000299    0.00000000    0.00463191
     atom   25 type  1   force =    -0.00001856   -0.00000000    0.00220590
     atom   26 type  1   force =    -0.00000356   -0.00000000   -0.00459309
     atom   27 type  1   force =     0.00001875   -0.00000000   -0.00224540
     atom   28 type  1   force =    -0.00000359   -0.00000000   -0.00459293
     atom   29 type  1   force =     0.00001920   -0.00000000   -0.00224479
     atom   30 type  1   force =    -0.00001892    0.00000000    0.00220587
     atom   31 type  1   force =     0.00000399    0.00000000    0.00463243
     atom   32 type  1   force =     0.00001875   -0.00000000   -0.00224540
     The non-local contrib.  to forces
     atom    1 type  1   force =     0.00009739    0.00000000   -0.03959335
     atom    2 type  1   force =    -0.00013330    0.00000000   -0.00626123
     atom    3 type  1   force =     0.00013488    0.00000000    0.00627192
     atom    4 type  1   force =    -0.00009634    0.00000000    0.03901583
     atom    5 type  1   force =     0.00013570    0.00000000    0.00627217
     atom    6 type  1   force =    -0.00009752    0.00000000    0.03901490
     atom    7 type  1   force =    -0.00013310    0.00000000   -0.00626140
     atom    8 type  1   force =     0.00013465   -0.00000000    0.00627201
     atom    9 type  1   force =    -0.00009788    0.00000000    0.03901559
     atom   10 type  1   force =    -0.00013321   -0.00000000   -0.00626198
     atom   11 type  1   force =     0.00009802   -0.00000000   -0.03959302
     atom   12 type  1   force =    -0.00013321    0.00000000   -0.00626066
     atom   13 type  1   force =     0.00009685   -0.00000000   -0.03959330
     atom   14 type  1   force =    -0.00009640    0.00000000    0.03901488
     atom   15 type  1   force =     0.00013592    0.00000000    0.00627210
     atom   16 type  1   force =     0.00013465    0.00000000    0.00627201
     atom   17 type  1   force =    -0.00009788    0.00000000    0.03901559
     atom   18 type  1   force =    -0.00013321    0.00000000   -0.00626198
     atom   19 type  1   force =     0.00009802    0.00000000   -0.03959302
     atom   20 type  1   force =    -0.00013321    0.00000000   -0.00626067
     atom   21 type  1   force =     0.00009685   -0.00000000   -0.03959331
     atom   22 type  1   force =    -0.00009641   -0.00000000    0.03901488
     atom   23 type  1   force =     0.00013592   -0.00000000    0.00627211
     atom   24 type  1   force =     0.00013569    0.00000000    0.00627217
     atom   25 type  1   force =    -0.00009752   -0.00000000    0.03901490
     atom   26 type  1   force =    -0.00013310   -0.00000000   -0.00626140
     atom   27 type  1   force =     0.00009792    0.00000000   -0.03959279
     atom   28 type  1   force =    -0.00013330    0.00000000   -0.00626123
     atom   29 type  1   force =     0.00009739    0.00000000   -0.03959335
     atom   30 type  1   force =    -0.00009634    0.00000000    0.03901583
     atom   31 type  1   force =     0.00013488    0.00000000    0.00627192
     atom   32 type  1   force =     0.00009792   -0.00000000   -0.03959279
     The ionic contribution  to forces
     atom    1 type  1   force =    -0.00000000   -0.00000000   -9.24823384
     atom    2 type  1   force =     0.00000003   -0.00000000    3.09440880
     atom    3 type  1   force =     0.00000082   -0.00000000   -3.09440754
     atom    4 type  1   force =    -0.00000006    0.00000000    9.24823264
     atom    5 type  1   force =    -0.00000088   -0.00000000   -3.09440822
     atom    6 type  1   force =     0.00000077   -0.00000000    9.24823313
     atom    7 type  1   force =     0.00000001    0.00000000    3.09440847
     atom    8 type  1   force =    -0.00000089    0.00000000   -3.09440749
     atom    9 type  1   force =    -0.00000111   -0.00000000    9.24823334
     atom   10 type  1   force =     0.00000155   -0.00000000    3.09440844
     atom   11 type  1   force =    -0.00000103    0.00000000   -9.24823420
     atom   12 type  1   force =    -0.00000155   -0.00000000    3.09440910
     atom   13 type  1   force =     0.00000024   -0.00000000   -9.24823341
     atom   14 type  1   force =     0.00000035   -0.00000000    9.24823248
     atom   15 type  1   force =     0.00000103    0.00000000   -3.09440795
     atom   16 type  1   force =    -0.00000089   -0.00000000   -3.09440749
     atom   17 type  1   force =    -0.00000111    0.00000000    9.24823334
     atom   18 type  1   force =     0.00000155   -0.00000000    3.09440844
     atom   19 type  1   force =    -0.00000103   -0.00000000   -9.24823420
     atom   20 type  1   force =    -0.00000155    0.00000000    3.09440910
     atom   21 type  1   force =     0.00000024   -0.00000000   -9.24823341
     atom   22 type  1   force =     0.00000035    0.00000000    9.24823248
     atom   23 type  1   force =     0.00000103    0.00000000   -3.09440795
     atom   24 type  1   force =    -0.00000088   -0.00000000   -3.09440822
     atom   25 type  1   force =     0.00000077   -0.00000000    9.24823313
     atom   26 type  1   force =     0.00000001   -0.00000000    3.09440847
     atom   27 type  1   force =     0.00000071    0.00000000   -9.24823377
     atom   28 type  1   force =     0.00000003   -0.00000000    3.09440880
     atom   29 type  1   force =    -0.00000000   -0.00000000   -9.24823384
     atom   30 type  1   force =    -0.00000006    0.00000000    9.24823264
     atom   31 type  1   force =     0.00000082    0.00000000   -3.09440754
     atom   32 type  1   force =     0.00000071   -0.00000000   -9.24823377
     The local contribution  to forces
     atom    1 type  1   force =    -0.00007046   -0.00000000    9.28512030
     atom    2 type  1   force =     0.00012197   -0.00000000   -3.08918239
     atom    3 type  1   force =    -0.00011889   -0.00000000    3.09700999
     atom    4 type  1   force =     0.00006605   -0.00000000   -9.27681631
     atom    5 type  1   force =    -0.00012623   -0.00000000    3.09700564
     atom    6 type  1   force =     0.00007703    0.00000000   -9.27681429
     atom    7 type  1   force =     0.00011911    0.00000000   -3.08918142
     atom    8 type  1   force =    -0.00011880    0.00000000    3.09700722
     atom    9 type  1   force =     0.00007749   -0.00000000   -9.27681524
     atom   10 type  1   force =     0.00012237    0.00000000   -3.08917649
     atom   11 type  1   force =    -0.00007611    0.00000000    9.28511841
     atom   12 type  1   force =     0.00011874    0.00000000   -3.08918750
     atom   13 type  1   force =    -0.00006752   -0.00000000    9.28511806
     atom   14 type  1   force =     0.00006719   -0.00000000   -9.27681506
     atom   15 type  1   force =    -0.00012669   -0.00000000    3.09700816
     atom   16 type  1   force =    -0.00011880   -0.00000000    3.09700722
     atom   17 type  1   force =     0.00007749    0.00000000   -9.27681524
     atom   18 type  1   force =     0.00012237   -0.00000000   -3.08917649
     atom   19 type  1   force =    -0.00007611   -0.00000000    9.28511841
     atom   20 type  1   force =     0.00011874   -0.00000000   -3.08918750
     atom   21 type  1   force =    -0.00006752    0.00000000    9.28511806
     atom   22 type  1   force =     0.00006719    0.00000000   -9.27681506
     atom   23 type  1   force =    -0.00012669    0.00000000    3.09700815
     atom   24 type  1   force =    -0.00012623   -0.00000000    3.09700564
     atom   25 type  1   force =     0.00007703    0.00000000   -9.27681429
     atom   26 type  1   force =     0.00011911    0.00000000   -3.08918142
     atom   27 type  1   force =    -0.00007489   -0.00000000    9.28511603
     atom   28 type  1   force =     0.00012197    0.00000000   -3.08918239
     atom   29 type  1   force =    -0.00007046   -0.00000000    9.28512030
     atom   30 type  1   force =     0.00006605    0.00000000   -9.27681632
     atom   31 type  1   force =    -0.00011889    0.00000000    3.09701000
     atom   32 type  1   force =    -0.00007489    0.00000000    9.28511602
     The core correction contribution to forces
     atom    1 type  1   force =    -0.00000633   -0.00000000    0.00436093
     atom    2 type  1   force =     0.00000907   -0.00000000    0.00034397
     atom    3 type  1   force =    -0.00000917   -0.00000000   -0.00034419
     atom    4 type  1   force =     0.00000626   -0.00000000   -0.00432069
     atom    5 type  1   force =    -0.00000924   -0.00000000   -0.00034421
     atom    6 type  1   force =     0.00000636    0.00000000   -0.00432063
     atom    7 type  1   force =     0.00000905    0.00000000    0.00034399
     atom    8 type  1   force =    -0.00000915    0.00000000   -0.00034420
     atom    9 type  1   force =     0.00000639   -0.00000000   -0.00432067
     atom   10 type  1   force =     0.00000906    0.00000000    0.00034404
     atom   11 type  1   force =    -0.00000638    0.00000000    0.00436090
     atom   12 type  1   force =     0.00000906   -0.00000000    0.00034392
     atom   13 type  1   force =    -0.00000629   -0.00000000    0.00436092
     atom   14 type  1   force =     0.00000626   -0.00000000   -0.00432062
     atom   15 type  1   force =    -0.00000926   -0.00000000   -0.00034420
     atom   16 type  1   force =    -0.00000915   -0.00000000   -0.00034420
     atom   17 type  1   force =     0.00000639   -0.00000000   -0.00432067
     atom   18 type  1   force =     0.00000906   -0.00000000    0.00034404
     atom   19 type  1   force =    -0.00000638   -0.00000000    0.00436090
     atom   20 type  1   force =     0.00000906   -0.00000000    0.00034392
     atom   21 type  1   force =    -0.00000629    0.00000000    0.00436092
     atom   22 type  1   force =     0.00000626    0.00000000   -0.00432062
     atom   23 type  1   force =    -0.00000926    0.00000000   -0.00034420
     atom   24 type  1   force =    -0.00000924   -0.00000000   -0.00034421
     atom   25 type  1   force =     0.00000636    0.00000000   -0.00432063
     atom   26 type  1   force =     0.00000905    0.00000000    0.00034399
     atom   27 type  1   force =    -0.00000638   -0.00000000    0.00436088
     atom   28 type  1   force =     0.00000907   -0.00000000    0.00034397
     atom   29 type  1   force =    -0.00000633   -0.00000000    0.00436093
     atom   30 type  1   force =     0.00000626    0.00000000   -0.00432069
     atom   31 type  1   force =    -0.00000917   -0.00000000   -0.00034419
     atom   32 type  1   force =    -0.00000638    0.00000000    0.00436088
     The Hubbard contrib.    to forces
     atom    1 type  1   force =     0.00000000    0.00000000    0.00000000
     atom    2 type  1   force =     0.00000000    0.00000000    0.00000000
     atom    3 type  1   force =     0.00000000    0.00000000    0.00000000
     atom    4 type  1   force =     0.00000000    0.00000000    0.00000000
     atom    5 type  1   force =     0.00000000    0.00000000    0.00000000
     atom    6 type  1   force =     0.00000000    0.00000000    0.00000000
     atom    7 type  1   force =     0.00000000    0.00000000    0.00000000
     atom    8 type  1   force =     0.00000000    0.00000000    0.00000000
     atom    9 type  1   force =     0.00000000    0.00000000    0.00000000
     atom   10 type  1   force =     0.00000000    0.00000000    0.00000000
     atom   11 type  1   force =     0.00000000    0.00000000    0.00000000
     atom   12 type  1   force =     0.00000000    0.00000000    0.00000000
     atom   13 type  1   force =     0.00000000    0.00000000    0.00000000
     atom   14 type  1   force =     0.00000000    0.00000000    0.00000000
     atom   15 type  1   force =     0.00000000    0.00000000    0.00000000
     atom   16 type  1   force =     0.00000000    0.00000000    0.00000000
     atom   17 type  1   force =     0.00000000    0.00000000    0.00000000
     atom   18 type  1   force =     0.00000000    0.00000000    0.00000000
     atom   19 type  1   force =     0.00000000    0.00000000    0.00000000
     atom   20 type  1   force =     0.00000000    0.00000000    0.00000000
     atom   21 type  1   force =     0.00000000    0.00000000    0.00000000
     atom   22 type  1   force =     0.00000000    0.00000000    0.00000000
     atom   23 type  1   force =     0.00000000    0.00000000    0.00000000
     atom   24 type  1   force =     0.00000000    0.00000000    0.00000000
     atom   25 type  1   force =     0.00000000    0.00000000    0.00000000
     atom   26 type  1   force =     0.00000000    0.00000000    0.00000000
     atom   27 type  1   force =     0.00000000    0.00000000    0.00000000
     atom   28 type  1   force =     0.00000000    0.00000000    0.00000000
     atom   29 type  1   force =     0.00000000    0.00000000    0.00000000
     atom   30 type  1   force =     0.00000000    0.00000000    0.00000000
     atom   31 type  1   force =     0.00000000    0.00000000    0.00000000
     atom   32 type  1   force =     0.00000000    0.00000000    0.00000000
     The SCF correction term to forces
     atom    1 type  1   force =    -0.00000140    0.00000000    0.00000239
     atom    2 type  1   force =    -0.00000136    0.00000000   -0.00000085
     atom    3 type  1   force =    -0.00000364    0.00000000    0.00000347
     atom    4 type  1   force =     0.00000517    0.00000000   -0.00000437
     atom    5 type  1   force =     0.00000364   -0.00000000    0.00000776
     atom    6 type  1   force =    -0.00000518   -0.00000000   -0.00000599
     atom    7 type  1   force =     0.00000138   -0.00000000   -0.00000150
     atom    8 type  1   force =    -0.00000203   -0.00000000    0.00000567
     atom    9 type  1   force =    -0.00000336    0.00000000   -0.00000581
     atom   10 type  1   force =    -0.00000322    0.00000000   -0.00000528
     atom   11 type  1   force =     0.00000363   -0.00000000    0.00000408
     atom   12 type  1   force =     0.00000320    0.00000000    0.00000295
     atom   13 type  1   force =    -0.00000362    0.00000000    0.00000381
     atom   14 type  1   force =     0.00000338    0.00000000   -0.00000459
     atom   15 type  1   force =     0.00000203    0.00000000    0.00000555
     atom   16 type  1   force =    -0.00000203    0.00000000    0.00000567
     atom   17 type  1   force =    -0.00000336   -0.00000000   -0.00000582
     atom   18 type  1   force =    -0.00000322   -0.00000000   -0.00000528
     atom   19 type  1   force =     0.00000363    0.00000000    0.00000408
     atom   20 type  1   force =     0.00000320   -0.00000000    0.00000295
     atom   21 type  1   force =    -0.00000362   -0.00000000    0.00000381
     atom   22 type  1   force =     0.00000338   -0.00000000   -0.00000459
     atom   23 type  1   force =     0.00000203   -0.00000000    0.00000555
     atom   24 type  1   force =     0.00000364    0.00000000    0.00000776
     atom   25 type  1   force =    -0.00000519    0.00000000   -0.00000599
     atom   26 type  1   force =     0.00000138    0.00000000   -0.00000150
     atom   27 type  1   force =     0.00000139    0.00000000    0.00000548
     atom   28 type  1   force =    -0.00000136   -0.00000000   -0.00000086
     atom   29 type  1   force =    -0.00000140   -0.00000000    0.00000239
     atom   30 type  1   force =     0.00000517   -0.00000000   -0.00000437
     atom   31 type  1   force =    -0.00000364   -0.00000000    0.00000347
     atom   32 type  1   force =     0.00000139   -0.00000000    0.00000548

     Total force =     0.020486     Total SCF correction =     0.000032

     Writing all to output data dir ./temp/onlyAl_M0D001.save/

     General routines

     Parallel routines

   This run was terminated on:  22:13: 3  20Mar2025

   JOB DONE.