     Program PWSCF v.7.2 starts on 20Mar2025 at 21:34: 5

     Reading input from Al111slab_0D0Ha.sc.in

     Current dimensions of program PWSCF are:
     Max number of different atomic species (ntypx) = 10
     Max number of k-points (npk) =  40000
     Max angular momentum in pseudopotentials (lmaxx) =  4
     Found identity + (  0.2500 -0.2500  0.0000) symmetry
     This is a supercell, fractional translations are disabled

     K-points division:     npool     =      12
     R & G space division:  proc/nbgrp/npool/nimage =      16
     Subspace diagonalization in iterative solution of the eigenvalue problem:
     a serial algorithm will be used

     Using Slab Decomposition

     bravais-lattice index     =            0
     lattice parameter (alat)  =      18.6834  a.u.
     unit-cell volume          =   11425.3995 (a.u.)^3
     number of atoms/cell      =           32
     number of atomic types    =            1
     number of electrons       =        96.00
     number of Kohn-Sham states=           58
     kinetic-energy cutoff     =     100.0000  Ry
     charge density cutoff     =     400.0000  Ry
     scf convergence threshold =      1.0E-09
     mixing beta               =       0.7000
     number of iterations used =            8  plain     mixing
     Exchange-correlation= PBE
                           (   1   4   3   4   0   0   0)

     celldm(1)=  18.683402  celldm(2)=   0.000000  celldm(3)=   0.000000
     celldm(4)=   0.000000  celldm(5)=   0.000000  celldm(6)=   0.000000

     crystal axes: (cart. coord. in units of alat)
               a(1) = (   1.000000   0.000000   0.000000 )
               a(2) = (   0.000000   0.577350   0.000000 )
               a(3) = (   0.000000   0.000000   3.034340 )

     reciprocal axes: (cart. coord. in units 2 pi/alat)
               b(1) = (  1.000000  0.000000  0.000000 )
               b(2) = (  0.000000  1.732051  0.000000 )
               b(3) = (  0.000000  0.000000  0.329561 )

     PseudoPot. # 1 for Al read from file:
     ./Al.upf
     MD5 check sum: a92309766db89a6b54a5f8790cc4d69e
     Pseudo is Norm-conserving + core correction, Zval =  3.0
     Generated using ONCVPSP code by D. R. Hamann
     Using radial grid of 1876 points,  6 beta functions with:
                l(1) =   0
                l(2) =   0
                l(3) =   1
                l(4) =   1
                l(5) =   2
                l(6) =   2

     atomic species   valence    mass     pseudopotential
        Al             3.00    26.00000     Al( 1.00)

     No symmetry found

   Cartesian axes

     site n.     atom                  positions (alat units)
         1           Al  tau(   1) = (   0.0000000   0.0000000   1.1636163  )
         2           Al  tau(   2) = (   0.3333333   0.0000000   1.6350208  )
         3           Al  tau(   3) = (   0.6666666   0.0000000   1.3993186  )
         4           Al  tau(   4) = (   0.0000000   0.0000000   1.8707232  )
         5           Al  tau(   5) = (   0.1666667   0.2886751   1.3993186  )
         6           Al  tau(   6) = (   0.5000000   0.2886751   1.8707232  )
         7           Al  tau(   7) = (   0.8333333   0.2886751   1.6350208  )
         8           Al  tau(   8) = (   0.9166667   0.4330127   1.3993186  )
         9           Al  tau(   9) = (   0.2500001   0.4330127   1.8707232  )
        10           Al  tau(  10) = (   0.5833333   0.4330127   1.6350208  )
        11           Al  tau(  11) = (   0.2500001   0.4330127   1.1636163  )
        12           Al  tau(  12) = (   0.0833334   0.1443376   1.6350208  )
        13           Al  tau(  13) = (   0.7500000   0.1443376   1.1636163  )
        14           Al  tau(  14) = (   0.7500000   0.1443376   1.8707232  )
        15           Al  tau(  15) = (   0.4166666   0.1443376   1.3993186  )
        16           Al  tau(  16) = (   0.9166667   0.1443376   1.3993186  )
        17           Al  tau(  17) = (   0.2500001   0.1443376   1.8707232  )
        18           Al  tau(  18) = (   0.5833333   0.1443376   1.6350208  )
        19           Al  tau(  19) = (   0.2500001   0.1443376   1.1636163  )
        20           Al  tau(  20) = (   0.0833334   0.4330127   1.6350208  )
        21           Al  tau(  21) = (   0.7500000   0.4330127   1.1636163  )
        22           Al  tau(  22) = (   0.7500000   0.4330127   1.8707232  )
        23           Al  tau(  23) = (   0.4166666   0.4330127   1.3993186  )
        24           Al  tau(  24) = (   0.1666667   0.0000000   1.3993186  )
        25           Al  tau(  25) = (   0.5000000   0.0000000   1.8707232  )
        26           Al  tau(  26) = (   0.8333333   0.0000000   1.6350208  )
        27           Al  tau(  27) = (   0.5000000   0.0000000   1.1636163  )
        28           Al  tau(  28) = (   0.3333333   0.2886751   1.6350208  )
        29           Al  tau(  29) = (   0.0000000   0.2886751   1.1636163  )
        30           Al  tau(  30) = (   0.0000000   0.2886751   1.8707232  )
        31           Al  tau(  31) = (   0.6666666   0.2886751   1.3993186  )
        32           Al  tau(  32) = (   0.5000000   0.2886751   1.1636163  )

     number of k points=    72  Fermi-Dirac smearing, width (Ry)=  0.0032
                       cart. coord. in units 2pi/alat
        k(    1) = (   0.0416667   0.0721688   0.0000000), wk =   0.0277778
        k(    2) = (   0.0416667   0.2165063   0.0000000), wk =   0.0277778
        k(    3) = (   0.0416667   0.3608439   0.0000000), wk =   0.0277778
        k(    4) = (   0.0416667   0.5051815   0.0000000), wk =   0.0277778
        k(    5) = (   0.0416667   0.6495190   0.0000000), wk =   0.0277778
        k(    6) = (   0.0416667   0.7938566   0.0000000), wk =   0.0277778
        k(    7) = (   0.0416667  -0.7938566   0.0000000), wk =   0.0277778
        k(    8) = (   0.0416667  -0.6495190   0.0000000), wk =   0.0277778
        k(    9) = (   0.0416667  -0.5051815   0.0000000), wk =   0.0277778
        k(   10) = (   0.0416667  -0.3608439   0.0000000), wk =   0.0277778
        k(   11) = (   0.0416667  -0.2165063   0.0000000), wk =   0.0277778
        k(   12) = (   0.0416667  -0.0721688   0.0000000), wk =   0.0277778
        k(   13) = (   0.1250000   0.0721688   0.0000000), wk =   0.0277778
        k(   14) = (   0.1250000   0.2165063   0.0000000), wk =   0.0277778
        k(   15) = (   0.1250000   0.3608439   0.0000000), wk =   0.0277778
        k(   16) = (   0.1250000   0.5051815   0.0000000), wk =   0.0277778
        k(   17) = (   0.1250000   0.6495190   0.0000000), wk =   0.0277778
        k(   18) = (   0.1250000   0.7938566   0.0000000), wk =   0.0277778
        k(   19) = (   0.1250000  -0.7938566   0.0000000), wk =   0.0277778
        k(   20) = (   0.1250000  -0.6495190   0.0000000), wk =   0.0277778
        k(   21) = (   0.1250000  -0.5051815   0.0000000), wk =   0.0277778
        k(   22) = (   0.1250000  -0.3608439   0.0000000), wk =   0.0277778
        k(   23) = (   0.1250000  -0.2165063   0.0000000), wk =   0.0277778
        k(   24) = (   0.1250000  -0.0721688   0.0000000), wk =   0.0277778
        k(   25) = (   0.2083333   0.0721688   0.0000000), wk =   0.0277778
        k(   26) = (   0.2083333   0.2165063   0.0000000), wk =   0.0277778
        k(   27) = (   0.2083333   0.3608439   0.0000000), wk =   0.0277778
        k(   28) = (   0.2083333   0.5051815   0.0000000), wk =   0.0277778
        k(   29) = (   0.2083333   0.6495190   0.0000000), wk =   0.0277778
        k(   30) = (   0.2083333   0.7938566   0.0000000), wk =   0.0277778
        k(   31) = (   0.2083333  -0.7938566   0.0000000), wk =   0.0277778
        k(   32) = (   0.2083333  -0.6495190   0.0000000), wk =   0.0277778
        k(   33) = (   0.2083333  -0.5051815   0.0000000), wk =   0.0277778
        k(   34) = (   0.2083333  -0.3608439   0.0000000), wk =   0.0277778
        k(   35) = (   0.2083333  -0.2165063   0.0000000), wk =   0.0277778
        k(   36) = (   0.2083333  -0.0721688   0.0000000), wk =   0.0277778
        k(   37) = (   0.2916667   0.0721688   0.0000000), wk =   0.0277778
        k(   38) = (   0.2916667   0.2165063   0.0000000), wk =   0.0277778
        k(   39) = (   0.2916667   0.3608439   0.0000000), wk =   0.0277778
        k(   40) = (   0.2916667   0.5051815   0.0000000), wk =   0.0277778
        k(   41) = (   0.2916667   0.6495190   0.0000000), wk =   0.0277778
        k(   42) = (   0.2916667   0.7938566   0.0000000), wk =   0.0277778
        k(   43) = (   0.2916667  -0.7938566   0.0000000), wk =   0.0277778
        k(   44) = (   0.2916667  -0.6495190   0.0000000), wk =   0.0277778
        k(   45) = (   0.2916667  -0.5051815   0.0000000), wk =   0.0277778
        k(   46) = (   0.2916667  -0.3608439   0.0000000), wk =   0.0277778
        k(   47) = (   0.2916667  -0.2165063   0.0000000), wk =   0.0277778
        k(   48) = (   0.2916667  -0.0721688   0.0000000), wk =   0.0277778
        k(   49) = (   0.3750000   0.0721688   0.0000000), wk =   0.0277778
        k(   50) = (   0.3750000   0.2165063   0.0000000), wk =   0.0277778
        k(   51) = (   0.3750000   0.3608439   0.0000000), wk =   0.0277778
        k(   52) = (   0.3750000   0.5051815   0.0000000), wk =   0.0277778
        k(   53) = (   0.3750000   0.6495190   0.0000000), wk =   0.0277778
        k(   54) = (   0.3750000   0.7938566   0.0000000), wk =   0.0277778
        k(   55) = (   0.3750000  -0.7938566   0.0000000), wk =   0.0277778
        k(   56) = (   0.3750000  -0.6495190   0.0000000), wk =   0.0277778
        k(   57) = (   0.3750000  -0.5051815   0.0000000), wk =   0.0277778
        k(   58) = (   0.3750000  -0.3608439   0.0000000), wk =   0.0277778
        k(   59) = (   0.3750000  -0.2165063   0.0000000), wk =   0.0277778
        k(   60) = (   0.3750000  -0.0721688   0.0000000), wk =   0.0277778
        k(   61) = (   0.4583333   0.0721688   0.0000000), wk =   0.0277778
        k(   62) = (   0.4583333   0.2165063   0.0000000), wk =   0.0277778
        k(   63) = (   0.4583333   0.3608439   0.0000000), wk =   0.0277778
        k(   64) = (   0.4583333   0.5051815   0.0000000), wk =   0.0277778
        k(   65) = (   0.4583333   0.6495190   0.0000000), wk =   0.0277778
        k(   66) = (   0.4583333   0.7938566   0.0000000), wk =   0.0277778
        k(   67) = (   0.4583333  -0.7938566   0.0000000), wk =   0.0277778
        k(   68) = (   0.4583333  -0.6495190   0.0000000), wk =   0.0277778
        k(   69) = (   0.4583333  -0.5051815   0.0000000), wk =   0.0277778
        k(   70) = (   0.4583333  -0.3608439   0.0000000), wk =   0.0277778
        k(   71) = (   0.4583333  -0.2165063   0.0000000), wk =   0.0277778
        k(   72) = (   0.4583333  -0.0721688   0.0000000), wk =   0.0277778

     Initial potential from superposition of free atoms

     starting charge      95.9217, renormalised to      96.0000

     negative rho (up, down):  2.622E-05 0.000E+00

     Adding external electric field

     Computed dipole along edir(3) :
        Dipole               -0.0000 Ry au,         -0.0000 Debye
        Dipole field         -0.0000 Ry au,

        Potential amp.        0.0000 Ry
        Total length         45.3534 bohr

[...]
     atom   11 type  1   force =     0.00001882    0.00000000   -0.00222247
     atom   12 type  1   force =    -0.00000375   -0.00000000   -0.00461357
     atom   13 type  1   force =     0.00001883    0.00000000   -0.00222240
     atom   14 type  1   force =    -0.00001894   -0.00000000    0.00222302
     atom   15 type  1   force =     0.00000383    0.00000000    0.00461296
     atom   16 type  1   force =     0.00000331    0.00000000    0.00461305
     atom   17 type  1   force =    -0.00001892   -0.00000000    0.00222310
     atom   18 type  1   force =    -0.00000329    0.00000000   -0.00461368
     atom   19 type  1   force =     0.00001882    0.00000000   -0.00222247
     atom   20 type  1   force =    -0.00000375   -0.00000000   -0.00461357
     atom   21 type  1   force =     0.00001883    0.00000000   -0.00222240
     atom   22 type  1   force =    -0.00001894   -0.00000000    0.00222302
     atom   23 type  1   force =     0.00000383    0.00000000    0.00461296
     atom   24 type  1   force =     0.00000341   -0.00000000    0.00461294
     atom   25 type  1   force =    -0.00001874   -0.00000000    0.00222308
     atom   26 type  1   force =    -0.00000359    0.00000000   -0.00461371
     atom   27 type  1   force =     0.00001905    0.00000000   -0.00222240
     atom   28 type  1   force =    -0.00000341   -0.00000000   -0.00461356
     atom   29 type  1   force =     0.00001876    0.00000000   -0.00222245
     atom   30 type  1   force =    -0.00001893   -0.00000000    0.00222305
     atom   31 type  1   force =     0.00000356   -0.00000000    0.00461304
     atom   32 type  1   force =     0.00001905    0.00000000   -0.00222240
     The non-local contrib.  to forces
     atom    1 type  1   force =     0.00009741    0.00000000   -0.03930024
     atom    2 type  1   force =    -0.00013438   -0.00000000   -0.00626620
     atom    3 type  1   force =     0.00013415    0.00000000    0.00626709
     atom    4 type  1   force =    -0.00009717   -0.00000000    0.03929887
     atom    5 type  1   force =     0.00013452   -0.00000000    0.00626713
     atom    6 type  1   force =    -0.00009732   -0.00000000    0.03929897
     atom    7 type  1   force =    -0.00013418    0.00000000   -0.00626593
     atom    8 type  1   force =     0.00013454    0.00000000    0.00626698
     atom    9 type  1   force =    -0.00009739   -0.00000000    0.03929888
     atom   10 type  1   force =    -0.00013442   -0.00000000   -0.00626589
     atom   11 type  1   force =     0.00009695    0.00000000   -0.03929990
     atom   12 type  1   force =    -0.00013417   -0.00000000   -0.00626611
     atom   13 type  1   force =     0.00009750    0.00000000   -0.03930034
     atom   14 type  1   force =    -0.00009745   -0.00000000    0.03929900
     atom   15 type  1   force =     0.00013392    0.00000000    0.00626724
     atom   16 type  1   force =     0.00013454    0.00000000    0.00626698
     atom   17 type  1   force =    -0.00009739   -0.00000000    0.03929888
     atom   18 type  1   force =    -0.00013442   -0.00000000   -0.00626589
     atom   19 type  1   force =     0.00009695    0.00000000   -0.03929990
     atom   20 type  1   force =    -0.00013417   -0.00000000   -0.00626611
     atom   21 type  1   force =     0.00009750    0.00000000   -0.03930034
     atom   22 type  1   force =    -0.00009745   -0.00000000    0.03929900
     atom   23 type  1   force =     0.00013392    0.00000000    0.00626724
     atom   24 type  1   force =     0.00013452    0.00000000    0.00626713
     atom   25 type  1   force =    -0.00009732   -0.00000000    0.03929897
     atom   26 type  1   force =    -0.00013418    0.00000000   -0.00626593
     atom   27 type  1   force =     0.00009747    0.00000000   -0.03930009
     atom   28 type  1   force =    -0.00013438   -0.00000000   -0.00626620
     atom   29 type  1   force =     0.00009741    0.00000000   -0.03930024
     atom   30 type  1   force =    -0.00009717   -0.00000000    0.03929887
     atom   31 type  1   force =     0.00013415    0.00000000    0.00626709
     atom   32 type  1   force =     0.00009747    0.00000000   -0.03930009
     The ionic contribution  to forces
     atom    1 type  1   force =    -0.00000000   -0.00000000   -9.24823384
     atom    2 type  1   force =     0.00000003   -0.00000000    3.09440880
     atom    3 type  1   force =     0.00000082   -0.00000000   -3.09440754
     atom    4 type  1   force =    -0.00000006    0.00000000    9.24823264
     atom    5 type  1   force =    -0.00000088   -0.00000000   -3.09440822
     atom    6 type  1   force =     0.00000077   -0.00000000    9.24823313
     atom    7 type  1   force =     0.00000001    0.00000000    3.09440847
     atom    8 type  1   force =    -0.00000089    0.00000000   -3.09440749
     atom    9 type  1   force =    -0.00000111   -0.00000000    9.24823334
     atom   10 type  1   force =     0.00000155   -0.00000000    3.09440844
     atom   11 type  1   force =    -0.00000103    0.00000000   -9.24823420
     atom   12 type  1   force =    -0.00000155   -0.00000000    3.09440910
     atom   13 type  1   force =     0.00000024   -0.00000000   -9.24823341
     atom   14 type  1   force =     0.00000035   -0.00000000    9.24823248
     atom   15 type  1   force =     0.00000103    0.00000000   -3.09440795
     atom   16 type  1   force =    -0.00000089   -0.00000000   -3.09440749
     atom   17 type  1   force =    -0.00000111    0.00000000    9.24823334
     atom   18 type  1   force =     0.00000155   -0.00000000    3.09440844
     atom   19 type  1   force =    -0.00000103   -0.00000000   -9.24823420
     atom   20 type  1   force =    -0.00000155    0.00000000    3.09440910
     atom   21 type  1   force =     0.00000024   -0.00000000   -9.24823341
     atom   22 type  1   force =     0.00000035    0.00000000    9.24823248
     atom   23 type  1   force =     0.00000103    0.00000000   -3.09440795
     atom   24 type  1   force =    -0.00000088   -0.00000000   -3.09440822
     atom   25 type  1   force =     0.00000077   -0.00000000    9.24823313
     atom   26 type  1   force =     0.00000001   -0.00000000    3.09440847
     atom   27 type  1   force =     0.00000071    0.00000000   -9.24823377
     atom   28 type  1   force =     0.00000003   -0.00000000    3.09440880
     atom   29 type  1   force =    -0.00000000   -0.00000000   -9.24823384
     atom   30 type  1   force =    -0.00000006    0.00000000    9.24823264
     atom   31 type  1   force =     0.00000082    0.00000000   -3.09440754
     atom   32 type  1   force =     0.00000071   -0.00000000   -9.24823377
     The local contribution  to forces
     atom    1 type  1   force =    -0.00007434   -0.00000000    9.28097240
     atom    2 type  1   force =     0.00012344    0.00000000   -3.09310181
     atom    3 type  1   force =    -0.00012014   -0.00000000    3.09309707
     atom    4 type  1   force =     0.00006927    0.00000000   -9.28097052
     atom    5 type  1   force =    -0.00012335    0.00000000    3.09309630
     atom    6 type  1   force =     0.00007429    0.00000000   -9.28097053
     atom    7 type  1   force =     0.00011983   -0.00000000   -3.09310325
     atom    8 type  1   force =    -0.00012556   -0.00000000    3.09309790
     atom    9 type  1   force =     0.00007199    0.00000000   -9.28096938
     atom   10 type  1   force =     0.00012509    0.00000000   -3.09310363
     atom   11 type  1   force =    -0.00006972   -0.00000000    9.28097043
     atom   12 type  1   force =     0.00011816    0.00000000   -3.09310179
     atom   13 type  1   force =    -0.00007366   -0.00000000    9.28097403
     atom   14 type  1   force =     0.00007297    0.00000000   -9.28097173
     atom   15 type  1   force =    -0.00011752   -0.00000000    3.09309519
     atom   16 type  1   force =    -0.00012556   -0.00000000    3.09309790
     atom   17 type  1   force =     0.00007199    0.00000000   -9.28096938
     atom   18 type  1   force =     0.00012509    0.00000000   -3.09310363
     atom   19 type  1   force =    -0.00006972   -0.00000000    9.28097043
     atom   20 type  1   force =     0.00011816    0.00000000   -3.09310179
     atom   21 type  1   force =    -0.00007366   -0.00000000    9.28097403
     atom   22 type  1   force =     0.00007297    0.00000000   -9.28097173
     atom   23 type  1   force =    -0.00011752   -0.00000000    3.09309519
     atom   24 type  1   force =    -0.00012335   -0.00000000    3.09309630
     atom   25 type  1   force =     0.00007429    0.00000000   -9.28097053
     atom   26 type  1   force =     0.00011983   -0.00000000   -3.09310325
     atom   27 type  1   force =    -0.00007075   -0.00000000    9.28097220
     atom   28 type  1   force =     0.00012344    0.00000000   -3.09310181
     atom   29 type  1   force =    -0.00007434   -0.00000000    9.28097240
     atom   30 type  1   force =     0.00006927    0.00000000   -9.28097052
     atom   31 type  1   force =    -0.00012014   -0.00000000    3.09309707
     atom   32 type  1   force =    -0.00007075   -0.00000000    9.28097220
     The core correction contribution to forces
     atom    1 type  1   force =    -0.00000634   -0.00000000    0.00434051
     atom    2 type  1   force =     0.00000914    0.00000000    0.00034405
     atom    3 type  1   force =    -0.00000912   -0.00000000   -0.00034412
     atom    4 type  1   force =     0.00000632    0.00000000   -0.00434040
     atom    5 type  1   force =    -0.00000915   -0.00000000   -0.00034412
     atom    6 type  1   force =     0.00000633    0.00000000   -0.00434040
     atom    7 type  1   force =     0.00000912   -0.00000000    0.00034402
     atom    8 type  1   force =    -0.00000915   -0.00000000   -0.00034411
     atom    9 type  1   force =     0.00000634    0.00000000   -0.00434040
     atom   10 type  1   force =     0.00000915    0.00000000    0.00034402
     atom   11 type  1   force =    -0.00000630   -0.00000000    0.00434049
     atom   12 type  1   force =     0.00000912    0.00000000    0.00034404
     atom   13 type  1   force =    -0.00000635   -0.00000000    0.00434052
     atom   14 type  1   force =     0.00000634    0.00000000   -0.00434041
     atom   15 type  1   force =    -0.00000910   -0.00000000   -0.00034413
     atom   16 type  1   force =    -0.00000915   -0.00000000   -0.00034411
     atom   17 type  1   force =     0.00000634    0.00000000   -0.00434040
     atom   18 type  1   force =     0.00000915    0.00000000    0.00034402
     atom   19 type  1   force =    -0.00000630   -0.00000000    0.00434049
     atom   20 type  1   force =     0.00000912    0.00000000    0.00034404
     atom   21 type  1   force =    -0.00000635   -0.00000000    0.00434052
     atom   22 type  1   force =     0.00000634    0.00000000   -0.00434041
     atom   23 type  1   force =    -0.00000910   -0.00000000   -0.00034413
     atom   24 type  1   force =    -0.00000915   -0.00000000   -0.00034412
     atom   25 type  1   force =     0.00000633    0.00000000   -0.00434040
     atom   26 type  1   force =     0.00000912   -0.00000000    0.00034402
     atom   27 type  1   force =    -0.00000634   -0.00000000    0.00434050
     atom   28 type  1   force =     0.00000914    0.00000000    0.00034405
     atom   29 type  1   force =    -0.00000634   -0.00000000    0.00434051
     atom   30 type  1   force =     0.00000632    0.00000000   -0.00434040
     atom   31 type  1   force =    -0.00000912   -0.00000000   -0.00034412
     atom   32 type  1   force =    -0.00000634   -0.00000000    0.00434050
     The Hubbard contrib.    to forces
     atom    1 type  1   force =     0.00000000    0.00000000    0.00000000
     atom    2 type  1   force =     0.00000000    0.00000000    0.00000000
     atom    3 type  1   force =     0.00000000    0.00000000    0.00000000
     atom    4 type  1   force =     0.00000000    0.00000000    0.00000000
     atom    5 type  1   force =     0.00000000    0.00000000    0.00000000
     atom    6 type  1   force =     0.00000000    0.00000000    0.00000000
     atom    7 type  1   force =     0.00000000    0.00000000    0.00000000
     atom    8 type  1   force =     0.00000000    0.00000000    0.00000000
     atom    9 type  1   force =     0.00000000    0.00000000    0.00000000
     atom   10 type  1   force =     0.00000000    0.00000000    0.00000000
     atom   11 type  1   force =     0.00000000    0.00000000    0.00000000
     atom   12 type  1   force =     0.00000000    0.00000000    0.00000000
     atom   13 type  1   force =     0.00000000    0.00000000    0.00000000
     atom   14 type  1   force =     0.00000000    0.00000000    0.00000000
     atom   15 type  1   force =     0.00000000    0.00000000    0.00000000
     atom   16 type  1   force =     0.00000000    0.00000000    0.00000000
     atom   17 type  1   force =     0.00000000    0.00000000    0.00000000
     atom   18 type  1   force =     0.00000000    0.00000000    0.00000000
     atom   19 type  1   force =     0.00000000    0.00000000    0.00000000
     atom   20 type  1   force =     0.00000000    0.00000000    0.00000000
     atom   21 type  1   force =     0.00000000    0.00000000    0.00000000
     atom   22 type  1   force =     0.00000000    0.00000000    0.00000000
     atom   23 type  1   force =     0.00000000    0.00000000    0.00000000
     atom   24 type  1   force =     0.00000000    0.00000000    0.00000000
     atom   25 type  1   force =     0.00000000    0.00000000    0.00000000
     atom   26 type  1   force =     0.00000000    0.00000000    0.00000000
     atom   27 type  1   force =     0.00000000    0.00000000    0.00000000
     atom   28 type  1   force =     0.00000000    0.00000000    0.00000000
     atom   29 type  1   force =     0.00000000    0.00000000    0.00000000
     atom   30 type  1   force =     0.00000000    0.00000000    0.00000000
     atom   31 type  1   force =     0.00000000    0.00000000    0.00000000
     atom   32 type  1   force =     0.00000000    0.00000000    0.00000000
     The SCF correction term to forces
     atom    1 type  1   force =     0.00000203    0.00000000   -0.00000056
     atom    2 type  1   force =    -0.00000164   -0.00000000    0.00000232
     atom    3 type  1   force =    -0.00000215    0.00000000    0.00000124
     atom    4 type  1   force =     0.00000271   -0.00000000    0.00000316
     atom    5 type  1   force =     0.00000227   -0.00000000    0.00000258
     atom    6 type  1   force =    -0.00000281    0.00000000    0.00000263
     atom    7 type  1   force =     0.00000162    0.00000000    0.00000369
     atom    8 type  1   force =     0.00000437   -0.00000000    0.00000049
     atom    9 type  1   force =     0.00000124   -0.00000000    0.00000137
     atom   10 type  1   force =    -0.00000466    0.00000000    0.00000409
     atom   11 type  1   force =    -0.00000108   -0.00000000    0.00000143
     atom   12 type  1   force =     0.00000468   -0.00000000    0.00000191
     atom   13 type  1   force =     0.00000110    0.00000000   -0.00000248
     atom   14 type  1   force =    -0.00000115   -0.00000000    0.00000440
     atom   15 type  1   force =    -0.00000450    0.00000000    0.00000332
     atom   16 type  1   force =     0.00000437   -0.00000000    0.00000049
     atom   17 type  1   force =     0.00000124    0.00000000    0.00000137
     atom   18 type  1   force =    -0.00000466   -0.00000000    0.00000409
     atom   19 type  1   force =    -0.00000108    0.00000000    0.00000143
     atom   20 type  1   force =     0.00000468   -0.00000000    0.00000191
     atom   21 type  1   force =     0.00000110   -0.00000000   -0.00000248
     atom   22 type  1   force =    -0.00000115    0.00000000    0.00000440
     atom   23 type  1   force =    -0.00000450   -0.00000000    0.00000332
     atom   24 type  1   force =     0.00000227    0.00000000    0.00000258
     atom   25 type  1   force =    -0.00000281   -0.00000000    0.00000263
     atom   26 type  1   force =     0.00000162   -0.00000000    0.00000369
     atom   27 type  1   force =    -0.00000205    0.00000000   -0.00000053
     atom   28 type  1   force =    -0.00000164    0.00000000    0.00000232
     atom   29 type  1   force =     0.00000203   -0.00000000   -0.00000056
     atom   30 type  1   force =     0.00000271    0.00000000    0.00000316
     atom   31 type  1   force =    -0.00000215   -0.00000000    0.00000124
     atom   32 type  1   force =    -0.00000205   -0.00000000   -0.00000053

     Total force =     0.020484     Total SCF correction =     0.000022

     Writing all to output data dir ./temp/onlyAl_0D0.save/

     General routines

     Parallel routines

   This run was terminated on:  21:38:28  20Mar2025

   JOB DONE.