     Program PWSCF v.7.2 starts on 20Mar2025 at 21:52:13

     Reading input from Al111slab_0D004Ha.sc.in

     Current dimensions of program PWSCF are:
     Max number of different atomic species (ntypx) = 10
     Max number of k-points (npk) =  40000
     Max angular momentum in pseudopotentials (lmaxx) =  4
     Found identity + (  0.2500 -0.2500  0.0000) symmetry
     This is a supercell, fractional translations are disabled

     K-points division:     npool     =      12
     R & G space division:  proc/nbgrp/npool/nimage =      16
     Subspace diagonalization in iterative solution of the eigenvalue problem:
     a serial algorithm will be used

     Using Slab Decomposition

     bravais-lattice index     =            0
     lattice parameter (alat)  =      18.6834  a.u.
     unit-cell volume          =   11425.3995 (a.u.)^3
     number of atoms/cell      =           32
     number of atomic types    =            1
     number of electrons       =        96.00
     number of Kohn-Sham states=           58
     kinetic-energy cutoff     =     100.0000  Ry
     charge density cutoff     =     400.0000  Ry
     scf convergence threshold =      1.0E-09
     mixing beta               =       0.7000
     number of iterations used =            8  plain     mixing
     Exchange-correlation= PBE
                           (   1   4   3   4   0   0   0)

     celldm(1)=  18.683402  celldm(2)=   0.000000  celldm(3)=   0.000000
     celldm(4)=   0.000000  celldm(5)=   0.000000  celldm(6)=   0.000000

     crystal axes: (cart. coord. in units of alat)
               a(1) = (   1.000000   0.000000   0.000000 )
               a(2) = (   0.000000   0.577350   0.000000 )
               a(3) = (   0.000000   0.000000   3.034340 )

     reciprocal axes: (cart. coord. in units 2 pi/alat)
               b(1) = (  1.000000  0.000000  0.000000 )
               b(2) = (  0.000000  1.732051  0.000000 )
               b(3) = (  0.000000  0.000000  0.329561 )

     PseudoPot. # 1 for Al read from file:
     ./Al.upf
     MD5 check sum: a92309766db89a6b54a5f8790cc4d69e
     Pseudo is Norm-conserving + core correction, Zval =  3.0
     Generated using ONCVPSP code by D. R. Hamann
     Using radial grid of 1876 points,  6 beta functions with:
                l(1) =   0
                l(2) =   0
                l(3) =   1
                l(4) =   1
                l(5) =   2
                l(6) =   2

     atomic species   valence    mass     pseudopotential
        Al             3.00    26.00000     Al( 1.00)

     No symmetry found

   Cartesian axes

     site n.     atom                  positions (alat units)
         1           Al  tau(   1) = (   0.0000000   0.0000000   1.1636163  )
         2           Al  tau(   2) = (   0.3333333   0.0000000   1.6350208  )
         3           Al  tau(   3) = (   0.6666666   0.0000000   1.3993186  )
         4           Al  tau(   4) = (   0.0000000   0.0000000   1.8707232  )
         5           Al  tau(   5) = (   0.1666667   0.2886751   1.3993186  )
         6           Al  tau(   6) = (   0.5000000   0.2886751   1.8707232  )
         7           Al  tau(   7) = (   0.8333333   0.2886751   1.6350208  )
         8           Al  tau(   8) = (   0.9166667   0.4330127   1.3993186  )
         9           Al  tau(   9) = (   0.2500001   0.4330127   1.8707232  )
        10           Al  tau(  10) = (   0.5833333   0.4330127   1.6350208  )
        11           Al  tau(  11) = (   0.2500001   0.4330127   1.1636163  )
        12           Al  tau(  12) = (   0.0833334   0.1443376   1.6350208  )
        13           Al  tau(  13) = (   0.7500000   0.1443376   1.1636163  )
        14           Al  tau(  14) = (   0.7500000   0.1443376   1.8707232  )
        15           Al  tau(  15) = (   0.4166666   0.1443376   1.3993186  )
        16           Al  tau(  16) = (   0.9166667   0.1443376   1.3993186  )
        17           Al  tau(  17) = (   0.2500001   0.1443376   1.8707232  )
        18           Al  tau(  18) = (   0.5833333   0.1443376   1.6350208  )
        19           Al  tau(  19) = (   0.2500001   0.1443376   1.1636163  )
        20           Al  tau(  20) = (   0.0833334   0.4330127   1.6350208  )
        21           Al  tau(  21) = (   0.7500000   0.4330127   1.1636163  )
        22           Al  tau(  22) = (   0.7500000   0.4330127   1.8707232  )
        23           Al  tau(  23) = (   0.4166666   0.4330127   1.3993186  )
        24           Al  tau(  24) = (   0.1666667   0.0000000   1.3993186  )
        25           Al  tau(  25) = (   0.5000000   0.0000000   1.8707232  )
        26           Al  tau(  26) = (   0.8333333   0.0000000   1.6350208  )
        27           Al  tau(  27) = (   0.5000000   0.0000000   1.1636163  )
        28           Al  tau(  28) = (   0.3333333   0.2886751   1.6350208  )
        29           Al  tau(  29) = (   0.0000000   0.2886751   1.1636163  )
        30           Al  tau(  30) = (   0.0000000   0.2886751   1.8707232  )
        31           Al  tau(  31) = (   0.6666666   0.2886751   1.3993186  )
        32           Al  tau(  32) = (   0.5000000   0.2886751   1.1636163  )

     number of k points=    72  Fermi-Dirac smearing, width (Ry)=  0.0032
                       cart. coord. in units 2pi/alat
        k(    1) = (   0.0416667   0.0721688   0.0000000), wk =   0.0277778
        k(    2) = (   0.0416667   0.2165063   0.0000000), wk =   0.0277778
        k(    3) = (   0.0416667   0.3608439   0.0000000), wk =   0.0277778
        k(    4) = (   0.0416667   0.5051815   0.0000000), wk =   0.0277778
        k(    5) = (   0.0416667   0.6495190   0.0000000), wk =   0.0277778
        k(    6) = (   0.0416667   0.7938566   0.0000000), wk =   0.0277778
        k(    7) = (   0.0416667  -0.7938566   0.0000000), wk =   0.0277778
        k(    8) = (   0.0416667  -0.6495190   0.0000000), wk =   0.0277778
        k(    9) = (   0.0416667  -0.5051815   0.0000000), wk =   0.0277778
        k(   10) = (   0.0416667  -0.3608439   0.0000000), wk =   0.0277778
        k(   11) = (   0.0416667  -0.2165063   0.0000000), wk =   0.0277778
        k(   12) = (   0.0416667  -0.0721688   0.0000000), wk =   0.0277778
        k(   13) = (   0.1250000   0.0721688   0.0000000), wk =   0.0277778
        k(   14) = (   0.1250000   0.2165063   0.0000000), wk =   0.0277778
        k(   15) = (   0.1250000   0.3608439   0.0000000), wk =   0.0277778
        k(   16) = (   0.1250000   0.5051815   0.0000000), wk =   0.0277778
        k(   17) = (   0.1250000   0.6495190   0.0000000), wk =   0.0277778
        k(   18) = (   0.1250000   0.7938566   0.0000000), wk =   0.0277778
        k(   19) = (   0.1250000  -0.7938566   0.0000000), wk =   0.0277778
        k(   20) = (   0.1250000  -0.6495190   0.0000000), wk =   0.0277778
        k(   21) = (   0.1250000  -0.5051815   0.0000000), wk =   0.0277778
        k(   22) = (   0.1250000  -0.3608439   0.0000000), wk =   0.0277778
        k(   23) = (   0.1250000  -0.2165063   0.0000000), wk =   0.0277778
        k(   24) = (   0.1250000  -0.0721688   0.0000000), wk =   0.0277778
        k(   25) = (   0.2083333   0.0721688   0.0000000), wk =   0.0277778
        k(   26) = (   0.2083333   0.2165063   0.0000000), wk =   0.0277778
        k(   27) = (   0.2083333   0.3608439   0.0000000), wk =   0.0277778
        k(   28) = (   0.2083333   0.5051815   0.0000000), wk =   0.0277778
        k(   29) = (   0.2083333   0.6495190   0.0000000), wk =   0.0277778
        k(   30) = (   0.2083333   0.7938566   0.0000000), wk =   0.0277778
        k(   31) = (   0.2083333  -0.7938566   0.0000000), wk =   0.0277778
        k(   32) = (   0.2083333  -0.6495190   0.0000000), wk =   0.0277778
        k(   33) = (   0.2083333  -0.5051815   0.0000000), wk =   0.0277778
        k(   34) = (   0.2083333  -0.3608439   0.0000000), wk =   0.0277778
        k(   35) = (   0.2083333  -0.2165063   0.0000000), wk =   0.0277778
        k(   36) = (   0.2083333  -0.0721688   0.0000000), wk =   0.0277778
        k(   37) = (   0.2916667   0.0721688   0.0000000), wk =   0.0277778
        k(   38) = (   0.2916667   0.2165063   0.0000000), wk =   0.0277778
        k(   39) = (   0.2916667   0.3608439   0.0000000), wk =   0.0277778
        k(   40) = (   0.2916667   0.5051815   0.0000000), wk =   0.0277778
        k(   41) = (   0.2916667   0.6495190   0.0000000), wk =   0.0277778
        k(   42) = (   0.2916667   0.7938566   0.0000000), wk =   0.0277778
        k(   43) = (   0.2916667  -0.7938566   0.0000000), wk =   0.0277778
        k(   44) = (   0.2916667  -0.6495190   0.0000000), wk =   0.0277778
        k(   45) = (   0.2916667  -0.5051815   0.0000000), wk =   0.0277778
        k(   46) = (   0.2916667  -0.3608439   0.0000000), wk =   0.0277778
        k(   47) = (   0.2916667  -0.2165063   0.0000000), wk =   0.0277778
        k(   48) = (   0.2916667  -0.0721688   0.0000000), wk =   0.0277778
        k(   49) = (   0.3750000   0.0721688   0.0000000), wk =   0.0277778
        k(   50) = (   0.3750000   0.2165063   0.0000000), wk =   0.0277778
        k(   51) = (   0.3750000   0.3608439   0.0000000), wk =   0.0277778
        k(   52) = (   0.3750000   0.5051815   0.0000000), wk =   0.0277778
        k(   53) = (   0.3750000   0.6495190   0.0000000), wk =   0.0277778
        k(   54) = (   0.3750000   0.7938566   0.0000000), wk =   0.0277778
        k(   55) = (   0.3750000  -0.7938566   0.0000000), wk =   0.0277778
        k(   56) = (   0.3750000  -0.6495190   0.0000000), wk =   0.0277778
        k(   57) = (   0.3750000  -0.5051815   0.0000000), wk =   0.0277778
        k(   58) = (   0.3750000  -0.3608439   0.0000000), wk =   0.0277778
        k(   59) = (   0.3750000  -0.2165063   0.0000000), wk =   0.0277778
        k(   60) = (   0.3750000  -0.0721688   0.0000000), wk =   0.0277778
        k(   61) = (   0.4583333   0.0721688   0.0000000), wk =   0.0277778
        k(   62) = (   0.4583333   0.2165063   0.0000000), wk =   0.0277778
        k(   63) = (   0.4583333   0.3608439   0.0000000), wk =   0.0277778
        k(   64) = (   0.4583333   0.5051815   0.0000000), wk =   0.0277778
        k(   65) = (   0.4583333   0.6495190   0.0000000), wk =   0.0277778
        k(   66) = (   0.4583333   0.7938566   0.0000000), wk =   0.0277778
        k(   67) = (   0.4583333  -0.7938566   0.0000000), wk =   0.0277778
        k(   68) = (   0.4583333  -0.6495190   0.0000000), wk =   0.0277778
        k(   69) = (   0.4583333  -0.5051815   0.0000000), wk =   0.0277778
        k(   70) = (   0.4583333  -0.3608439   0.0000000), wk =   0.0277778
        k(   71) = (   0.4583333  -0.2165063   0.0000000), wk =   0.0277778
        k(   72) = (   0.4583333  -0.0721688   0.0000000), wk =   0.0277778

     Initial potential from superposition of free atoms

     starting charge      95.9217, renormalised to      96.0000

     negative rho (up, down):  2.622E-05 0.000E+00

     Adding external electric field

     Computed dipole along edir(3) :
        Dipole               -0.0000 Ry au,         -0.0000 Debye
        Dipole field         -0.0000 Ry au,

        E field amplitude [Ha a.u.]:  4.0000E-03
        Potential amp.        0.3628 Ry
[...]
     atom   11 type  1   force =     0.00001854   -0.00000000   -0.00218155
     atom   12 type  1   force =    -0.00000301   -0.00000000   -0.00469162
     atom   13 type  1   force =     0.00001837    0.00000000   -0.00218178
     atom   14 type  1   force =    -0.00001956   -0.00000000    0.00233760
     atom   15 type  1   force =     0.00000388   -0.00000000    0.00453561
     atom   16 type  1   force =     0.00000386    0.00000000    0.00453557
     atom   17 type  1   force =    -0.00001865   -0.00000000    0.00233763
     atom   18 type  1   force =    -0.00000349   -0.00000000   -0.00469146
     atom   19 type  1   force =     0.00001854    0.00000000   -0.00218155
     atom   20 type  1   force =    -0.00000301   -0.00000000   -0.00469162
     atom   21 type  1   force =     0.00001837   -0.00000000   -0.00218178
     atom   22 type  1   force =    -0.00001956    0.00000000    0.00233760
     atom   23 type  1   force =     0.00000388   -0.00000000    0.00453561
     atom   24 type  1   force =     0.00000422    0.00000000    0.00453531
     atom   25 type  1   force =    -0.00001921    0.00000000    0.00233738
     atom   26 type  1   force =    -0.00000355   -0.00000000   -0.00469159
     atom   27 type  1   force =     0.00001809   -0.00000000   -0.00218155
     atom   28 type  1   force =    -0.00000280   -0.00000000   -0.00469150
     atom   29 type  1   force =     0.00001883   -0.00000000   -0.00218175
     atom   30 type  1   force =    -0.00001897    0.00000000    0.00233787
     atom   31 type  1   force =     0.00000344    0.00000000    0.00453584
     atom   32 type  1   force =     0.00001809    0.00000000   -0.00218155
     The non-local contrib.  to forces
     atom    1 type  1   force =     0.00009554   -0.00000000   -0.03823188
     atom    2 type  1   force =    -0.00013843   -0.00000000   -0.00627876
     atom    3 type  1   force =     0.00013033    0.00000000    0.00623920
     atom    4 type  1   force =    -0.00009808    0.00000000    0.04053452
     atom    5 type  1   force =     0.00012948   -0.00000000    0.00623995
     atom    6 type  1   force =    -0.00009771   -0.00000000    0.04053428
     atom    7 type  1   force =    -0.00013767   -0.00000000   -0.00627870
     atom    8 type  1   force =     0.00012958    0.00000000    0.00623984
     atom    9 type  1   force =    -0.00009911    0.00000000    0.04053424
     atom   10 type  1   force =    -0.00013751   -0.00000000   -0.00627876
     atom   11 type  1   force =     0.00009548    0.00000000   -0.03823172
     atom   12 type  1   force =    -0.00013848    0.00000000   -0.00627852
     atom   13 type  1   force =     0.00009575    0.00000000   -0.03823206
     atom   14 type  1   force =    -0.00009753    0.00000000    0.04053465
     atom   15 type  1   force =     0.00013011   -0.00000000    0.00623960
     atom   16 type  1   force =     0.00012958    0.00000000    0.00623984
     atom   17 type  1   force =    -0.00009911   -0.00000000    0.04053424
     atom   18 type  1   force =    -0.00013751    0.00000000   -0.00627875
     atom   19 type  1   force =     0.00009548   -0.00000000   -0.03823172
     atom   20 type  1   force =    -0.00013849    0.00000000   -0.00627852
     atom   21 type  1   force =     0.00009575   -0.00000000   -0.03823206
     atom   22 type  1   force =    -0.00009753   -0.00000000    0.04053465
     atom   23 type  1   force =     0.00013011    0.00000000    0.00623961
     atom   24 type  1   force =     0.00012948    0.00000000    0.00623995
     atom   25 type  1   force =    -0.00009771   -0.00000000    0.04053428
     atom   26 type  1   force =    -0.00013766    0.00000000   -0.00627870
     atom   27 type  1   force =     0.00009669    0.00000000   -0.03823181
     atom   28 type  1   force =    -0.00013843    0.00000000   -0.00627876
     atom   29 type  1   force =     0.00009554   -0.00000000   -0.03823188
     atom   30 type  1   force =    -0.00009808   -0.00000000    0.04053452
     atom   31 type  1   force =     0.00013033    0.00000000    0.00623920
     atom   32 type  1   force =     0.00009669   -0.00000000   -0.03823181
     The ionic contribution  to forces
     atom    1 type  1   force =    -0.00000000   -0.00000000   -9.24823384
     atom    2 type  1   force =     0.00000003   -0.00000000    3.09440880
     atom    3 type  1   force =     0.00000082   -0.00000000   -3.09440754
     atom    4 type  1   force =    -0.00000006    0.00000000    9.24823264
     atom    5 type  1   force =    -0.00000088   -0.00000000   -3.09440822
     atom    6 type  1   force =     0.00000077   -0.00000000    9.24823313
     atom    7 type  1   force =     0.00000001    0.00000000    3.09440847
     atom    8 type  1   force =    -0.00000089    0.00000000   -3.09440749
     atom    9 type  1   force =    -0.00000111   -0.00000000    9.24823334
     atom   10 type  1   force =     0.00000155   -0.00000000    3.09440844
     atom   11 type  1   force =    -0.00000103    0.00000000   -9.24823420
     atom   12 type  1   force =    -0.00000155   -0.00000000    3.09440910
     atom   13 type  1   force =     0.00000024   -0.00000000   -9.24823341
     atom   14 type  1   force =     0.00000035   -0.00000000    9.24823248
     atom   15 type  1   force =     0.00000103    0.00000000   -3.09440795
     atom   16 type  1   force =    -0.00000089   -0.00000000   -3.09440749
     atom   17 type  1   force =    -0.00000111    0.00000000    9.24823334
     atom   18 type  1   force =     0.00000155   -0.00000000    3.09440844
     atom   19 type  1   force =    -0.00000103   -0.00000000   -9.24823420
     atom   20 type  1   force =    -0.00000155    0.00000000    3.09440910
     atom   21 type  1   force =     0.00000024   -0.00000000   -9.24823341
     atom   22 type  1   force =     0.00000035    0.00000000    9.24823248
     atom   23 type  1   force =     0.00000103    0.00000000   -3.09440795
     atom   24 type  1   force =    -0.00000088   -0.00000000   -3.09440822
     atom   25 type  1   force =     0.00000077   -0.00000000    9.24823313
     atom   26 type  1   force =     0.00000001   -0.00000000    3.09440847
     atom   27 type  1   force =     0.00000071    0.00000000   -9.24823377
     atom   28 type  1   force =     0.00000003   -0.00000000    3.09440880
     atom   29 type  1   force =    -0.00000000   -0.00000000   -9.24823384
     atom   30 type  1   force =    -0.00000006    0.00000000    9.24823264
     atom   31 type  1   force =     0.00000082    0.00000000   -3.09440754
     atom   32 type  1   force =     0.00000071   -0.00000000   -9.24823377
     The local contribution  to forces
     atom    1 type  1   force =    -0.00006678    0.00000000    9.26442447
     atom    2 type  1   force =     0.00012856   -0.00000000   -3.10877713
     atom    3 type  1   force =    -0.00012078    0.00000000    3.07744804
     atom    4 type  1   force =     0.00007386   -0.00000000   -9.29760805
     atom    5 type  1   force =    -0.00011379    0.00000000    3.07744320
     atom    6 type  1   force =     0.00007005   -0.00000000   -9.29760997
     atom    7 type  1   force =     0.00012247    0.00000000   -3.10877824
     atom    8 type  1   force =    -0.00011455   -0.00000000    3.07744470
     atom    9 type  1   force =     0.00007927   -0.00000000   -9.29760902
     atom   10 type  1   force =     0.00012103    0.00000000   -3.10877620
     atom   11 type  1   force =    -0.00006960   -0.00000000    9.26442513
     atom   12 type  1   force =     0.00012958   -0.00000000   -3.10877980
     atom   13 type  1   force =    -0.00007113    0.00000000    9.26442411
     atom   14 type  1   force =     0.00006738   -0.00000000   -9.29760919
     atom   15 type  1   force =    -0.00011977   -0.00000000    3.07744577
     atom   16 type  1   force =    -0.00011455   -0.00000000    3.07744470
     atom   17 type  1   force =     0.00007927    0.00000000   -9.29760902
     atom   18 type  1   force =     0.00012103   -0.00000000   -3.10877620
     atom   19 type  1   force =    -0.00006961    0.00000000    9.26442512
     atom   20 type  1   force =     0.00012958   -0.00000000   -3.10877980
     atom   21 type  1   force =    -0.00007114    0.00000000    9.26442412
     atom   22 type  1   force =     0.00006739    0.00000000   -9.29760919
     atom   23 type  1   force =    -0.00011977   -0.00000000    3.07744576
     atom   24 type  1   force =    -0.00011379   -0.00000000    3.07744320
     atom   25 type  1   force =     0.00007005    0.00000000   -9.29760997
     atom   26 type  1   force =     0.00012247   -0.00000000   -3.10877824
     atom   27 type  1   force =    -0.00007707   -0.00000001    9.26442478
     atom   28 type  1   force =     0.00012856   -0.00000000   -3.10877713
     atom   29 type  1   force =    -0.00006678    0.00000000    9.26442447
     atom   30 type  1   force =     0.00007386    0.00000001   -9.29760805
     atom   31 type  1   force =    -0.00012078   -0.00000000    3.07744804
     atom   32 type  1   force =    -0.00007707    0.00000001    9.26442478
     The core correction contribution to forces
     atom    1 type  1   force =    -0.00000622    0.00000000    0.00426619
     atom    2 type  1   force =     0.00000943    0.00000000    0.00034384
     atom    3 type  1   force =    -0.00000886    0.00000000   -0.00034324
     atom    4 type  1   force =     0.00000638   -0.00000000   -0.00442654
     atom    5 type  1   force =    -0.00000879    0.00000000   -0.00034330
     atom    6 type  1   force =     0.00000635    0.00000000   -0.00442653
     atom    7 type  1   force =     0.00000936    0.00000000    0.00034383
     atom    8 type  1   force =    -0.00000880   -0.00000000   -0.00034329
     atom    9 type  1   force =     0.00000647   -0.00000000   -0.00442652
     atom   10 type  1   force =     0.00000935    0.00000000    0.00034384
     atom   11 type  1   force =    -0.00000621   -0.00000000    0.00426618
     atom   12 type  1   force =     0.00000943   -0.00000000    0.00034381
     atom   13 type  1   force =    -0.00000623    0.00000000    0.00426620
     atom   14 type  1   force =     0.00000634   -0.00000000   -0.00442655
     atom   15 type  1   force =    -0.00000885   -0.00000000   -0.00034327
     atom   16 type  1   force =    -0.00000880   -0.00000000   -0.00034329
     atom   17 type  1   force =     0.00000647    0.00000000   -0.00442652
     atom   18 type  1   force =     0.00000935   -0.00000000    0.00034384
     atom   19 type  1   force =    -0.00000621    0.00000000    0.00426618
     atom   20 type  1   force =     0.00000943   -0.00000000    0.00034381
     atom   21 type  1   force =    -0.00000623    0.00000000    0.00426620
     atom   22 type  1   force =     0.00000634    0.00000000   -0.00442655
     atom   23 type  1   force =    -0.00000885   -0.00000000   -0.00034327
     atom   24 type  1   force =    -0.00000879   -0.00000000   -0.00034330
     atom   25 type  1   force =     0.00000635    0.00000000   -0.00442653
     atom   26 type  1   force =     0.00000936   -0.00000000    0.00034383
     atom   27 type  1   force =    -0.00000631   -0.00000000    0.00426618
     atom   28 type  1   force =     0.00000943   -0.00000000    0.00034384
     atom   29 type  1   force =    -0.00000621    0.00000000    0.00426619
     atom   30 type  1   force =     0.00000638    0.00000000   -0.00442654
     atom   31 type  1   force =    -0.00000886   -0.00000000   -0.00034324
     atom   32 type  1   force =    -0.00000631    0.00000000    0.00426618
     The Hubbard contrib.    to forces
     atom    1 type  1   force =     0.00000000    0.00000000    0.00000000
     atom    2 type  1   force =     0.00000000    0.00000000    0.00000000
     atom    3 type  1   force =     0.00000000    0.00000000    0.00000000
     atom    4 type  1   force =     0.00000000    0.00000000    0.00000000
     atom    5 type  1   force =     0.00000000    0.00000000    0.00000000
     atom    6 type  1   force =     0.00000000    0.00000000    0.00000000
     atom    7 type  1   force =     0.00000000    0.00000000    0.00000000
     atom    8 type  1   force =     0.00000000    0.00000000    0.00000000
     atom    9 type  1   force =     0.00000000    0.00000000    0.00000000
     atom   10 type  1   force =     0.00000000    0.00000000    0.00000000
     atom   11 type  1   force =     0.00000000    0.00000000    0.00000000
     atom   12 type  1   force =     0.00000000    0.00000000    0.00000000
     atom   13 type  1   force =     0.00000000    0.00000000    0.00000000
     atom   14 type  1   force =     0.00000000    0.00000000    0.00000000
     atom   15 type  1   force =     0.00000000    0.00000000    0.00000000
     atom   16 type  1   force =     0.00000000    0.00000000    0.00000000
     atom   17 type  1   force =     0.00000000    0.00000000    0.00000000
     atom   18 type  1   force =     0.00000000    0.00000000    0.00000000
     atom   19 type  1   force =     0.00000000    0.00000000    0.00000000
     atom   20 type  1   force =     0.00000000    0.00000000    0.00000000
     atom   21 type  1   force =     0.00000000    0.00000000    0.00000000
     atom   22 type  1   force =     0.00000000    0.00000000    0.00000000
     atom   23 type  1   force =     0.00000000    0.00000000    0.00000000
     atom   24 type  1   force =     0.00000000    0.00000000    0.00000000
     atom   25 type  1   force =     0.00000000    0.00000000    0.00000000
     atom   26 type  1   force =     0.00000000    0.00000000    0.00000000
     atom   27 type  1   force =     0.00000000    0.00000000    0.00000000
     atom   28 type  1   force =     0.00000000    0.00000000    0.00000000
     atom   29 type  1   force =     0.00000000    0.00000000    0.00000000
     atom   30 type  1   force =     0.00000000    0.00000000    0.00000000
     atom   31 type  1   force =     0.00000000    0.00000000    0.00000000
     atom   32 type  1   force =     0.00000000    0.00000000    0.00000000
     The SCF correction term to forces
     atom    1 type  1   force =    -0.00000372    0.00000000   -0.00000640
     atom    2 type  1   force =    -0.00000239    0.00000000    0.00001204
     atom    3 type  1   force =     0.00000193   -0.00000000   -0.00000035
     atom    4 type  1   force =    -0.00000107    0.00000000    0.00000557
     atom    5 type  1   force =    -0.00000179   -0.00000000    0.00000397
     atom    6 type  1   force =     0.00000133    0.00000000    0.00000675
     atom    7 type  1   force =     0.00000227   -0.00000000    0.00001334
     atom    8 type  1   force =    -0.00000149    0.00000000    0.00000209
     atom    9 type  1   force =    -0.00000417    0.00000000    0.00000587
     atom   10 type  1   force =     0.00000209   -0.00000000    0.00001150
     atom   11 type  1   force =    -0.00000010    0.00000000   -0.00000666
     atom   12 type  1   force =    -0.00000198    0.00000000    0.00001406
     atom   13 type  1   force =    -0.00000025    0.00000000   -0.00000635
     atom   14 type  1   force =     0.00000391    0.00000000    0.00000648
     atom   15 type  1   force =     0.00000135    0.00000000    0.00000174
     atom   16 type  1   force =    -0.00000149   -0.00000000    0.00000209
     atom   17 type  1   force =    -0.00000417   -0.00000000    0.00000587
     atom   18 type  1   force =     0.00000209    0.00000000    0.00001150
     atom   19 type  1   force =    -0.00000010   -0.00000000   -0.00000665
     atom   20 type  1   force =    -0.00000198    0.00000000    0.00001406
     atom   21 type  1   force =    -0.00000025   -0.00000000   -0.00000635
     atom   22 type  1   force =     0.00000390   -0.00000000    0.00000648
     atom   23 type  1   force =     0.00000135   -0.00000000    0.00000174
     atom   24 type  1   force =    -0.00000179    0.00000000    0.00000397
     atom   25 type  1   force =     0.00000133   -0.00000000    0.00000675
     atom   26 type  1   force =     0.00000227    0.00000000    0.00001334
     atom   27 type  1   force =     0.00000407    0.00000000   -0.00000666
     atom   28 type  1   force =    -0.00000239   -0.00000000    0.00001204
     atom   29 type  1   force =    -0.00000372   -0.00000000   -0.00000640
     atom   30 type  1   force =    -0.00000107   -0.00000000    0.00000557
     atom   31 type  1   force =     0.00000193    0.00000000   -0.00000034
     atom   32 type  1   force =     0.00000407   -0.00000000   -0.00000666

     Total force =     0.020554     Total SCF correction =     0.000047

     Writing all to output data dir ./temp/onlyAl_0D004.save/

     General routines

     Parallel routines

   This run was terminated on:  21:59:47  20Mar2025

   JOB DONE.