     Program PWSCF v.7.2 starts on 20Mar2025 at 21:59:52

     Reading input from Al111slab_0D008Ha.sc.in

     Current dimensions of program PWSCF are:
     Max number of different atomic species (ntypx) = 10
     Max number of k-points (npk) =  40000
     Max angular momentum in pseudopotentials (lmaxx) =  4
     Found identity + (  0.2500 -0.2500  0.0000) symmetry
     This is a supercell, fractional translations are disabled

     K-points division:     npool     =      12
     R & G space division:  proc/nbgrp/npool/nimage =      16
     Subspace diagonalization in iterative solution of the eigenvalue problem:
     a serial algorithm will be used

     Using Slab Decomposition

     bravais-lattice index     =            0
     lattice parameter (alat)  =      18.6834  a.u.
     unit-cell volume          =   11425.3995 (a.u.)^3
     number of atoms/cell      =           32
     number of atomic types    =            1
     number of electrons       =        96.00
     number of Kohn-Sham states=           58
     kinetic-energy cutoff     =     100.0000  Ry
     charge density cutoff     =     400.0000  Ry
     scf convergence threshold =      1.0E-09
     mixing beta               =       0.7000
     number of iterations used =            8  plain     mixing
     Exchange-correlation= PBE
                           (   1   4   3   4   0   0   0)

     celldm(1)=  18.683402  celldm(2)=   0.000000  celldm(3)=   0.000000
     celldm(4)=   0.000000  celldm(5)=   0.000000  celldm(6)=   0.000000

     crystal axes: (cart. coord. in units of alat)
               a(1) = (   1.000000   0.000000   0.000000 )
               a(2) = (   0.000000   0.577350   0.000000 )
               a(3) = (   0.000000   0.000000   3.034340 )

     reciprocal axes: (cart. coord. in units 2 pi/alat)
               b(1) = (  1.000000  0.000000  0.000000 )
               b(2) = (  0.000000  1.732051  0.000000 )
               b(3) = (  0.000000  0.000000  0.329561 )

     PseudoPot. # 1 for Al read from file:
     ./Al.upf
     MD5 check sum: a92309766db89a6b54a5f8790cc4d69e
     Pseudo is Norm-conserving + core correction, Zval =  3.0
     Generated using ONCVPSP code by D. R. Hamann
     Using radial grid of 1876 points,  6 beta functions with:
                l(1) =   0
                l(2) =   0
                l(3) =   1
                l(4) =   1
                l(5) =   2
                l(6) =   2

     atomic species   valence    mass     pseudopotential
        Al             3.00    26.00000     Al( 1.00)

     No symmetry found

   Cartesian axes

     site n.     atom                  positions (alat units)
         1           Al  tau(   1) = (   0.0000000   0.0000000   1.1636163  )
         2           Al  tau(   2) = (   0.3333333   0.0000000   1.6350208  )
         3           Al  tau(   3) = (   0.6666666   0.0000000   1.3993186  )
         4           Al  tau(   4) = (   0.0000000   0.0000000   1.8707232  )
         5           Al  tau(   5) = (   0.1666667   0.2886751   1.3993186  )
         6           Al  tau(   6) = (   0.5000000   0.2886751   1.8707232  )
         7           Al  tau(   7) = (   0.8333333   0.2886751   1.6350208  )
         8           Al  tau(   8) = (   0.9166667   0.4330127   1.3993186  )
         9           Al  tau(   9) = (   0.2500001   0.4330127   1.8707232  )
        10           Al  tau(  10) = (   0.5833333   0.4330127   1.6350208  )
        11           Al  tau(  11) = (   0.2500001   0.4330127   1.1636163  )
        12           Al  tau(  12) = (   0.0833334   0.1443376   1.6350208  )
        13           Al  tau(  13) = (   0.7500000   0.1443376   1.1636163  )
        14           Al  tau(  14) = (   0.7500000   0.1443376   1.8707232  )
        15           Al  tau(  15) = (   0.4166666   0.1443376   1.3993186  )
        16           Al  tau(  16) = (   0.9166667   0.1443376   1.3993186  )
        17           Al  tau(  17) = (   0.2500001   0.1443376   1.8707232  )
        18           Al  tau(  18) = (   0.5833333   0.1443376   1.6350208  )
        19           Al  tau(  19) = (   0.2500001   0.1443376   1.1636163  )
        20           Al  tau(  20) = (   0.0833334   0.4330127   1.6350208  )
        21           Al  tau(  21) = (   0.7500000   0.4330127   1.1636163  )
        22           Al  tau(  22) = (   0.7500000   0.4330127   1.8707232  )
        23           Al  tau(  23) = (   0.4166666   0.4330127   1.3993186  )
        24           Al  tau(  24) = (   0.1666667   0.0000000   1.3993186  )
        25           Al  tau(  25) = (   0.5000000   0.0000000   1.8707232  )
        26           Al  tau(  26) = (   0.8333333   0.0000000   1.6350208  )
        27           Al  tau(  27) = (   0.5000000   0.0000000   1.1636163  )
        28           Al  tau(  28) = (   0.3333333   0.2886751   1.6350208  )
        29           Al  tau(  29) = (   0.0000000   0.2886751   1.1636163  )
        30           Al  tau(  30) = (   0.0000000   0.2886751   1.8707232  )
        31           Al  tau(  31) = (   0.6666666   0.2886751   1.3993186  )
        32           Al  tau(  32) = (   0.5000000   0.2886751   1.1636163  )

     number of k points=    72  Fermi-Dirac smearing, width (Ry)=  0.0032
                       cart. coord. in units 2pi/alat
        k(    1) = (   0.0416667   0.0721688   0.0000000), wk =   0.0277778
        k(    2) = (   0.0416667   0.2165063   0.0000000), wk =   0.0277778
        k(    3) = (   0.0416667   0.3608439   0.0000000), wk =   0.0277778
        k(    4) = (   0.0416667   0.5051815   0.0000000), wk =   0.0277778
        k(    5) = (   0.0416667   0.6495190   0.0000000), wk =   0.0277778
        k(    6) = (   0.0416667   0.7938566   0.0000000), wk =   0.0277778
        k(    7) = (   0.0416667  -0.7938566   0.0000000), wk =   0.0277778
        k(    8) = (   0.0416667  -0.6495190   0.0000000), wk =   0.0277778
        k(    9) = (   0.0416667  -0.5051815   0.0000000), wk =   0.0277778
        k(   10) = (   0.0416667  -0.3608439   0.0000000), wk =   0.0277778
        k(   11) = (   0.0416667  -0.2165063   0.0000000), wk =   0.0277778
        k(   12) = (   0.0416667  -0.0721688   0.0000000), wk =   0.0277778
        k(   13) = (   0.1250000   0.0721688   0.0000000), wk =   0.0277778
        k(   14) = (   0.1250000   0.2165063   0.0000000), wk =   0.0277778
        k(   15) = (   0.1250000   0.3608439   0.0000000), wk =   0.0277778
        k(   16) = (   0.1250000   0.5051815   0.0000000), wk =   0.0277778
        k(   17) = (   0.1250000   0.6495190   0.0000000), wk =   0.0277778
        k(   18) = (   0.1250000   0.7938566   0.0000000), wk =   0.0277778
        k(   19) = (   0.1250000  -0.7938566   0.0000000), wk =   0.0277778
        k(   20) = (   0.1250000  -0.6495190   0.0000000), wk =   0.0277778
        k(   21) = (   0.1250000  -0.5051815   0.0000000), wk =   0.0277778
        k(   22) = (   0.1250000  -0.3608439   0.0000000), wk =   0.0277778
        k(   23) = (   0.1250000  -0.2165063   0.0000000), wk =   0.0277778
        k(   24) = (   0.1250000  -0.0721688   0.0000000), wk =   0.0277778
        k(   25) = (   0.2083333   0.0721688   0.0000000), wk =   0.0277778
        k(   26) = (   0.2083333   0.2165063   0.0000000), wk =   0.0277778
        k(   27) = (   0.2083333   0.3608439   0.0000000), wk =   0.0277778
        k(   28) = (   0.2083333   0.5051815   0.0000000), wk =   0.0277778
        k(   29) = (   0.2083333   0.6495190   0.0000000), wk =   0.0277778
        k(   30) = (   0.2083333   0.7938566   0.0000000), wk =   0.0277778
        k(   31) = (   0.2083333  -0.7938566   0.0000000), wk =   0.0277778
        k(   32) = (   0.2083333  -0.6495190   0.0000000), wk =   0.0277778
        k(   33) = (   0.2083333  -0.5051815   0.0000000), wk =   0.0277778
        k(   34) = (   0.2083333  -0.3608439   0.0000000), wk =   0.0277778
        k(   35) = (   0.2083333  -0.2165063   0.0000000), wk =   0.0277778
        k(   36) = (   0.2083333  -0.0721688   0.0000000), wk =   0.0277778
        k(   37) = (   0.2916667   0.0721688   0.0000000), wk =   0.0277778
        k(   38) = (   0.2916667   0.2165063   0.0000000), wk =   0.0277778
        k(   39) = (   0.2916667   0.3608439   0.0000000), wk =   0.0277778
        k(   40) = (   0.2916667   0.5051815   0.0000000), wk =   0.0277778
        k(   41) = (   0.2916667   0.6495190   0.0000000), wk =   0.0277778
        k(   42) = (   0.2916667   0.7938566   0.0000000), wk =   0.0277778
        k(   43) = (   0.2916667  -0.7938566   0.0000000), wk =   0.0277778
        k(   44) = (   0.2916667  -0.6495190   0.0000000), wk =   0.0277778
        k(   45) = (   0.2916667  -0.5051815   0.0000000), wk =   0.0277778
        k(   46) = (   0.2916667  -0.3608439   0.0000000), wk =   0.0277778
        k(   47) = (   0.2916667  -0.2165063   0.0000000), wk =   0.0277778
        k(   48) = (   0.2916667  -0.0721688   0.0000000), wk =   0.0277778
        k(   49) = (   0.3750000   0.0721688   0.0000000), wk =   0.0277778
        k(   50) = (   0.3750000   0.2165063   0.0000000), wk =   0.0277778
        k(   51) = (   0.3750000   0.3608439   0.0000000), wk =   0.0277778
        k(   52) = (   0.3750000   0.5051815   0.0000000), wk =   0.0277778
        k(   53) = (   0.3750000   0.6495190   0.0000000), wk =   0.0277778
        k(   54) = (   0.3750000   0.7938566   0.0000000), wk =   0.0277778
        k(   55) = (   0.3750000  -0.7938566   0.0000000), wk =   0.0277778
        k(   56) = (   0.3750000  -0.6495190   0.0000000), wk =   0.0277778
        k(   57) = (   0.3750000  -0.5051815   0.0000000), wk =   0.0277778
        k(   58) = (   0.3750000  -0.3608439   0.0000000), wk =   0.0277778
        k(   59) = (   0.3750000  -0.2165063   0.0000000), wk =   0.0277778
        k(   60) = (   0.3750000  -0.0721688   0.0000000), wk =   0.0277778
        k(   61) = (   0.4583333   0.0721688   0.0000000), wk =   0.0277778
        k(   62) = (   0.4583333   0.2165063   0.0000000), wk =   0.0277778
        k(   63) = (   0.4583333   0.3608439   0.0000000), wk =   0.0277778
        k(   64) = (   0.4583333   0.5051815   0.0000000), wk =   0.0277778
        k(   65) = (   0.4583333   0.6495190   0.0000000), wk =   0.0277778
        k(   66) = (   0.4583333   0.7938566   0.0000000), wk =   0.0277778
        k(   67) = (   0.4583333  -0.7938566   0.0000000), wk =   0.0277778
        k(   68) = (   0.4583333  -0.6495190   0.0000000), wk =   0.0277778
        k(   69) = (   0.4583333  -0.5051815   0.0000000), wk =   0.0277778
        k(   70) = (   0.4583333  -0.3608439   0.0000000), wk =   0.0277778
        k(   71) = (   0.4583333  -0.2165063   0.0000000), wk =   0.0277778
        k(   72) = (   0.4583333  -0.0721688   0.0000000), wk =   0.0277778

     Initial potential from superposition of free atoms

     starting charge      95.9217, renormalised to      96.0000

     negative rho (up, down):  2.622E-05 0.000E+00

     Adding external electric field

     Computed dipole along edir(3) :
        Dipole               -0.0000 Ry au,         -0.0000 Debye
        Dipole field         -0.0000 Ry au,

        E field amplitude [Ha a.u.]:  8.0000E-03
        Potential amp.        0.7257 Ry
[...]
     atom   11 type  1   force =     0.00001765    0.00000000   -0.00221594
     atom   12 type  1   force =    -0.00000322   -0.00000000   -0.00476861
     atom   13 type  1   force =     0.00001797    0.00000000   -0.00221616
     atom   14 type  1   force =    -0.00001932    0.00000000    0.00252261
     atom   15 type  1   force =     0.00000428   -0.00000000    0.00446183
     atom   16 type  1   force =     0.00000404   -0.00000000    0.00446194
     atom   17 type  1   force =    -0.00001898    0.00000000    0.00252291
     atom   18 type  1   force =    -0.00000268   -0.00000000   -0.00476852
     atom   19 type  1   force =     0.00001765    0.00000000   -0.00221595
     atom   20 type  1   force =    -0.00000322    0.00000000   -0.00476861
     atom   21 type  1   force =     0.00001797   -0.00000000   -0.00221616
     atom   22 type  1   force =    -0.00001932   -0.00000000    0.00252261
     atom   23 type  1   force =     0.00000428   -0.00000000    0.00446183
     atom   24 type  1   force =     0.00000414    0.00000000    0.00446153
     atom   25 type  1   force =    -0.00001892   -0.00000000    0.00252268
     atom   26 type  1   force =    -0.00000313   -0.00000000   -0.00476865
     atom   27 type  1   force =     0.00001773   -0.00000000   -0.00221608
     atom   28 type  1   force =    -0.00000265   -0.00000000   -0.00476853
     atom   29 type  1   force =     0.00001808   -0.00000000   -0.00221603
     atom   30 type  1   force =    -0.00001921   -0.00000000    0.00252281
     atom   31 type  1   force =     0.00000421    0.00000000    0.00446221
     atom   32 type  1   force =     0.00001773   -0.00000000   -0.00221608
     The non-local contrib.  to forces
     atom    1 type  1   force =     0.00009361   -0.00000000   -0.03734593
     atom    2 type  1   force =    -0.00014105    0.00000000   -0.00627499
     atom    3 type  1   force =     0.00012451    0.00000000    0.00620143
     atom    4 type  1   force =    -0.00009775   -0.00000000    0.04192153
     atom    5 type  1   force =     0.00012482    0.00000000    0.00620220
     atom    6 type  1   force =    -0.00009822   -0.00000000    0.04192123
     atom    7 type  1   force =    -0.00014071    0.00000000   -0.00627488
     atom    8 type  1   force =     0.00012478   -0.00000000    0.00620186
     atom    9 type  1   force =    -0.00009844    0.00000000    0.04192134
     atom   10 type  1   force =    -0.00014090    0.00000000   -0.00627490
     atom   11 type  1   force =     0.00009379    0.00000000   -0.03734615
     atom   12 type  1   force =    -0.00014087   -0.00000000   -0.00627500
     atom   13 type  1   force =     0.00009349   -0.00000000   -0.03734605
     atom   14 type  1   force =    -0.00009793   -0.00000000    0.04192130
     atom   15 type  1   force =     0.00012475   -0.00000000    0.00620186
     atom   16 type  1   force =     0.00012478    0.00000000    0.00620186
     atom   17 type  1   force =    -0.00009844    0.00000000    0.04192134
     atom   18 type  1   force =    -0.00014090   -0.00000000   -0.00627490
     atom   19 type  1   force =     0.00009379    0.00000000   -0.03734615
     atom   20 type  1   force =    -0.00014087   -0.00000000   -0.00627501
     atom   21 type  1   force =     0.00009348   -0.00000000   -0.03734605
     atom   22 type  1   force =    -0.00009793   -0.00000000    0.04192130
     atom   23 type  1   force =     0.00012476   -0.00000000    0.00620186
     atom   24 type  1   force =     0.00012482    0.00000000    0.00620220
     atom   25 type  1   force =    -0.00009822   -0.00000000    0.04192123
     atom   26 type  1   force =    -0.00014071   -0.00000000   -0.00627488
     atom   27 type  1   force =     0.00009403   -0.00000000   -0.03734618
     atom   28 type  1   force =    -0.00014105    0.00000000   -0.00627498
     atom   29 type  1   force =     0.00009361   -0.00000000   -0.03734593
     atom   30 type  1   force =    -0.00009775    0.00000000    0.04192153
     atom   31 type  1   force =     0.00012451    0.00000000    0.00620143
     atom   32 type  1   force =     0.00009403   -0.00000000   -0.03734617
     The ionic contribution  to forces
     atom    1 type  1   force =    -0.00000000   -0.00000000   -9.24823384
     atom    2 type  1   force =     0.00000003   -0.00000000    3.09440880
     atom    3 type  1   force =     0.00000082   -0.00000000   -3.09440754
     atom    4 type  1   force =    -0.00000006    0.00000000    9.24823264
     atom    5 type  1   force =    -0.00000088   -0.00000000   -3.09440822
     atom    6 type  1   force =     0.00000077   -0.00000000    9.24823313
     atom    7 type  1   force =     0.00000001    0.00000000    3.09440847
     atom    8 type  1   force =    -0.00000089    0.00000000   -3.09440749
     atom    9 type  1   force =    -0.00000111   -0.00000000    9.24823334
     atom   10 type  1   force =     0.00000155   -0.00000000    3.09440844
     atom   11 type  1   force =    -0.00000103    0.00000000   -9.24823420
     atom   12 type  1   force =    -0.00000155   -0.00000000    3.09440910
     atom   13 type  1   force =     0.00000024   -0.00000000   -9.24823341
     atom   14 type  1   force =     0.00000035   -0.00000000    9.24823248
     atom   15 type  1   force =     0.00000103    0.00000000   -3.09440795
     atom   16 type  1   force =    -0.00000089   -0.00000000   -3.09440749
     atom   17 type  1   force =    -0.00000111    0.00000000    9.24823334
     atom   18 type  1   force =     0.00000155   -0.00000000    3.09440844
     atom   19 type  1   force =    -0.00000103   -0.00000000   -9.24823420
     atom   20 type  1   force =    -0.00000155    0.00000000    3.09440910
     atom   21 type  1   force =     0.00000024   -0.00000000   -9.24823341
     atom   22 type  1   force =     0.00000035    0.00000000    9.24823248
     atom   23 type  1   force =     0.00000103    0.00000000   -3.09440795
     atom   24 type  1   force =    -0.00000088   -0.00000000   -3.09440822
     atom   25 type  1   force =     0.00000077   -0.00000000    9.24823313
     atom   26 type  1   force =     0.00000001   -0.00000000    3.09440847
     atom   27 type  1   force =     0.00000071    0.00000000   -9.24823377
     atom   28 type  1   force =     0.00000003   -0.00000000    3.09440880
     atom   29 type  1   force =    -0.00000000   -0.00000000   -9.24823384
     atom   30 type  1   force =    -0.00000006    0.00000000    9.24823264
     atom   31 type  1   force =     0.00000082    0.00000000   -3.09440754
     atom   32 type  1   force =     0.00000071   -0.00000000   -9.24823377
     The local contribution  to forces
     atom    1 type  1   force =    -0.00006937   -0.00000000    9.24798866
     atom    2 type  1   force =     0.00012989   -0.00000000   -3.12441534
     atom    3 type  1   force =    -0.00011024   -0.00000000    3.06184621
     atom    4 type  1   force =     0.00007020   -0.00000000   -9.31428551
     atom    5 type  1   force =    -0.00011370   -0.00000000    3.06184207
     atom    6 type  1   force =     0.00007416    0.00000000   -9.31428520
     atom    7 type  1   force =     0.00012708    0.00000000   -3.12441607
     atom    8 type  1   force =    -0.00011214    0.00000000    3.06184348
     atom    9 type  1   force =     0.00007458   -0.00000000   -9.31428482
     atom   10 type  1   force =     0.00012946   -0.00000000   -3.12441493
     atom   11 type  1   force =    -0.00007148   -0.00000000    9.24798826
     atom   12 type  1   force =     0.00012701    0.00000000   -3.12441658
     atom   13 type  1   force =    -0.00006705    0.00000000    9.24798863
     atom   14 type  1   force =     0.00007151    0.00000000   -9.31428570
     atom   15 type  1   force =    -0.00011231    0.00000000    3.06184436
     atom   16 type  1   force =    -0.00011214   -0.00000000    3.06184348
     atom   17 type  1   force =     0.00007457    0.00000000   -9.31428482
     atom   18 type  1   force =     0.00012946    0.00000000   -3.12441493
     atom   19 type  1   force =    -0.00007148   -0.00000000    9.24798826
     atom   20 type  1   force =     0.00012701    0.00000000   -3.12441658
     atom   21 type  1   force =    -0.00006705    0.00000000    9.24798863
     atom   22 type  1   force =     0.00007151   -0.00000000   -9.31428570
     atom   23 type  1   force =    -0.00011231    0.00000000    3.06184436
     atom   24 type  1   force =    -0.00011370   -0.00000000    3.06184207
     atom   25 type  1   force =     0.00007416    0.00000000   -9.31428520
     atom   26 type  1   force =     0.00012708   -0.00000000   -3.12441607
     atom   27 type  1   force =    -0.00007109   -0.00000000    9.24798813
     atom   28 type  1   force =     0.00012989   -0.00000000   -3.12441535
     atom   29 type  1   force =    -0.00006937    0.00000000    9.24798867
     atom   30 type  1   force =     0.00007020   -0.00000000   -9.31428552
     atom   31 type  1   force =    -0.00011024    0.00000000    3.06184621
     atom   32 type  1   force =    -0.00007109    0.00000000    9.24798813
     The core correction contribution to forces
     atom    1 type  1   force =    -0.00000610    0.00000000    0.00420472
     atom    2 type  1   force =     0.00000961   -0.00000000    0.00034253
     atom    3 type  1   force =    -0.00000845   -0.00000000   -0.00034162
     atom    4 type  1   force =     0.00000635    0.00000000   -0.00452340
     atom    5 type  1   force =    -0.00000848   -0.00000000   -0.00034168
     atom    6 type  1   force =     0.00000639    0.00000000   -0.00452338
     atom    7 type  1   force =     0.00000958   -0.00000000    0.00034253
     atom    8 type  1   force =    -0.00000847   -0.00000000   -0.00034166
     atom    9 type  1   force =     0.00000641   -0.00000000   -0.00452339
     atom   10 type  1   force =     0.00000959   -0.00000000    0.00034253
     atom   11 type  1   force =    -0.00000611   -0.00000000    0.00420473
     atom   12 type  1   force =     0.00000959    0.00000000    0.00034253
     atom   13 type  1   force =    -0.00000609    0.00000000    0.00420472
     atom   14 type  1   force =     0.00000637    0.00000000   -0.00452339
     atom   15 type  1   force =    -0.00000847    0.00000000   -0.00034166
     atom   16 type  1   force =    -0.00000847   -0.00000000   -0.00034166
     atom   17 type  1   force =     0.00000641   -0.00000000   -0.00452339
     atom   18 type  1   force =     0.00000959   -0.00000000    0.00034253
     atom   19 type  1   force =    -0.00000611   -0.00000000    0.00420473
     atom   20 type  1   force =     0.00000959    0.00000000    0.00034253
     atom   21 type  1   force =    -0.00000609    0.00000000    0.00420472
     atom   22 type  1   force =     0.00000637    0.00000000   -0.00452339
     atom   23 type  1   force =    -0.00000847    0.00000000   -0.00034166
     atom   24 type  1   force =    -0.00000848   -0.00000000   -0.00034168
     atom   25 type  1   force =     0.00000639    0.00000000   -0.00452338
     atom   26 type  1   force =     0.00000958    0.00000000    0.00034253
     atom   27 type  1   force =    -0.00000613    0.00000000    0.00420473
     atom   28 type  1   force =     0.00000961   -0.00000000    0.00034253
     atom   29 type  1   force =    -0.00000610    0.00000000    0.00420472
     atom   30 type  1   force =     0.00000635   -0.00000000   -0.00452340
     atom   31 type  1   force =    -0.00000845   -0.00000000   -0.00034162
     atom   32 type  1   force =    -0.00000613    0.00000000    0.00420473
     The Hubbard contrib.    to forces
     atom    1 type  1   force =     0.00000000    0.00000000    0.00000000
     atom    2 type  1   force =     0.00000000    0.00000000    0.00000000
     atom    3 type  1   force =     0.00000000    0.00000000    0.00000000
     atom    4 type  1   force =     0.00000000    0.00000000    0.00000000
     atom    5 type  1   force =     0.00000000    0.00000000    0.00000000
     atom    6 type  1   force =     0.00000000    0.00000000    0.00000000
     atom    7 type  1   force =     0.00000000    0.00000000    0.00000000
     atom    8 type  1   force =     0.00000000    0.00000000    0.00000000
     atom    9 type  1   force =     0.00000000    0.00000000    0.00000000
     atom   10 type  1   force =     0.00000000    0.00000000    0.00000000
     atom   11 type  1   force =     0.00000000    0.00000000    0.00000000
     atom   12 type  1   force =     0.00000000    0.00000000    0.00000000
     atom   13 type  1   force =     0.00000000    0.00000000    0.00000000
     atom   14 type  1   force =     0.00000000    0.00000000    0.00000000
     atom   15 type  1   force =     0.00000000    0.00000000    0.00000000
     atom   16 type  1   force =     0.00000000    0.00000000    0.00000000
     atom   17 type  1   force =     0.00000000    0.00000000    0.00000000
     atom   18 type  1   force =     0.00000000    0.00000000    0.00000000
     atom   19 type  1   force =     0.00000000    0.00000000    0.00000000
     atom   20 type  1   force =     0.00000000    0.00000000    0.00000000
     atom   21 type  1   force =     0.00000000    0.00000000    0.00000000
     atom   22 type  1   force =     0.00000000    0.00000000    0.00000000
     atom   23 type  1   force =     0.00000000    0.00000000    0.00000000
     atom   24 type  1   force =     0.00000000    0.00000000    0.00000000
     atom   25 type  1   force =     0.00000000    0.00000000    0.00000000
     atom   26 type  1   force =     0.00000000    0.00000000    0.00000000
     atom   27 type  1   force =     0.00000000    0.00000000    0.00000000
     atom   28 type  1   force =     0.00000000    0.00000000    0.00000000
     atom   29 type  1   force =     0.00000000    0.00000000    0.00000000
     atom   30 type  1   force =     0.00000000    0.00000000    0.00000000
     atom   31 type  1   force =     0.00000000    0.00000000    0.00000000
     atom   32 type  1   force =     0.00000000    0.00000000    0.00000000
     The SCF correction term to forces
     atom    1 type  1   force =    -0.00000007    0.00000000   -0.00000525
     atom    2 type  1   force =    -0.00000112    0.00000000   -0.00000513
     atom    3 type  1   force =    -0.00000242    0.00000000   -0.00001185
     atom    4 type  1   force =     0.00000204    0.00000000    0.00000196
     atom    5 type  1   force =     0.00000238   -0.00000000   -0.00000842
     atom    6 type  1   force =    -0.00000202   -0.00000000    0.00000131
     atom    7 type  1   force =     0.00000091   -0.00000000   -0.00000429
     atom    8 type  1   force =     0.00000075    0.00000000   -0.00000984
     atom    9 type  1   force =    -0.00000041    0.00000000    0.00000084
     atom   10 type  1   force =    -0.00000239    0.00000000   -0.00000525
     atom   11 type  1   force =     0.00000248   -0.00000000   -0.00000419
     atom   12 type  1   force =     0.00000260   -0.00000000   -0.00000426
     atom   13 type  1   force =    -0.00000262    0.00000000   -0.00000565
     atom   14 type  1   force =     0.00000039   -0.00000000    0.00000232
     atom   15 type  1   force =    -0.00000072   -0.00000000   -0.00001039
     atom   16 type  1   force =     0.00000075   -0.00000000   -0.00000984
     atom   17 type  1   force =    -0.00000041   -0.00000000    0.00000084
     atom   18 type  1   force =    -0.00000239   -0.00000000   -0.00000525
     atom   19 type  1   force =     0.00000248    0.00000000   -0.00000419
     atom   20 type  1   force =     0.00000260    0.00000000   -0.00000426
     atom   21 type  1   force =    -0.00000262   -0.00000000   -0.00000565
     atom   22 type  1   force =     0.00000039    0.00000000    0.00000232
     atom   23 type  1   force =    -0.00000072    0.00000000   -0.00001039
     atom   24 type  1   force =     0.00000238    0.00000000   -0.00000842
     atom   25 type  1   force =    -0.00000202    0.00000000    0.00000131
     atom   26 type  1   force =     0.00000091    0.00000000   -0.00000429
     atom   27 type  1   force =     0.00000021    0.00000000   -0.00000460
     atom   28 type  1   force =    -0.00000112   -0.00000000   -0.00000513
     atom   29 type  1   force =    -0.00000006   -0.00000000   -0.00000525
     atom   30 type  1   force =     0.00000204   -0.00000000    0.00000196
     atom   31 type  1   force =    -0.00000242   -0.00000000   -0.00001186
     atom   32 type  1   force =     0.00000021   -0.00000000   -0.00000460

     Total force =     0.020770     Total SCF correction =     0.000036

     Writing all to output data dir ./temp/onlyAl_0D008.save/

     General routines

     Parallel routines

   This run was terminated on:  22: 6:12  20Mar2025

   JOB DONE.