     Program PWSCF v.7.2 starts on 20Mar2025 at 21:45: 4

     Reading input from Al111slab_0D002Ha.sc.in

     Current dimensions of program PWSCF are:
     Max number of different atomic species (ntypx) = 10
     Max number of k-points (npk) =  40000
     Max angular momentum in pseudopotentials (lmaxx) =  4
     Found identity + (  0.2500 -0.2500  0.0000) symmetry
     This is a supercell, fractional translations are disabled

     K-points division:     npool     =      12
     R & G space division:  proc/nbgrp/npool/nimage =      16
     Subspace diagonalization in iterative solution of the eigenvalue problem:
     a serial algorithm will be used

     Using Slab Decomposition

     bravais-lattice index     =            0
     lattice parameter (alat)  =      18.6834  a.u.
     unit-cell volume          =   11425.3995 (a.u.)^3
     number of atoms/cell      =           32
     number of atomic types    =            1
     number of electrons       =        96.00
     number of Kohn-Sham states=           58
     kinetic-energy cutoff     =     100.0000  Ry
     charge density cutoff     =     400.0000  Ry
     scf convergence threshold =      1.0E-09
     mixing beta               =       0.7000
     number of iterations used =            8  plain     mixing
     Exchange-correlation= PBE
                           (   1   4   3   4   0   0   0)

     celldm(1)=  18.683402  celldm(2)=   0.000000  celldm(3)=   0.000000
     celldm(4)=   0.000000  celldm(5)=   0.000000  celldm(6)=   0.000000

     crystal axes: (cart. coord. in units of alat)
               a(1) = (   1.000000   0.000000   0.000000 )
               a(2) = (   0.000000   0.577350   0.000000 )
               a(3) = (   0.000000   0.000000   3.034340 )

     reciprocal axes: (cart. coord. in units 2 pi/alat)
               b(1) = (  1.000000  0.000000  0.000000 )
               b(2) = (  0.000000  1.732051  0.000000 )
               b(3) = (  0.000000  0.000000  0.329561 )

     PseudoPot. # 1 for Al read from file:
     ./Al.upf
     MD5 check sum: a92309766db89a6b54a5f8790cc4d69e
     Pseudo is Norm-conserving + core correction, Zval =  3.0
     Generated using ONCVPSP code by D. R. Hamann
     Using radial grid of 1876 points,  6 beta functions with:
                l(1) =   0
                l(2) =   0
                l(3) =   1
                l(4) =   1
                l(5) =   2
                l(6) =   2

     atomic species   valence    mass     pseudopotential
        Al             3.00    26.00000     Al( 1.00)

     No symmetry found

   Cartesian axes

     site n.     atom                  positions (alat units)
         1           Al  tau(   1) = (   0.0000000   0.0000000   1.1636163  )
         2           Al  tau(   2) = (   0.3333333   0.0000000   1.6350208  )
         3           Al  tau(   3) = (   0.6666666   0.0000000   1.3993186  )
         4           Al  tau(   4) = (   0.0000000   0.0000000   1.8707232  )
         5           Al  tau(   5) = (   0.1666667   0.2886751   1.3993186  )
         6           Al  tau(   6) = (   0.5000000   0.2886751   1.8707232  )
         7           Al  tau(   7) = (   0.8333333   0.2886751   1.6350208  )
         8           Al  tau(   8) = (   0.9166667   0.4330127   1.3993186  )
         9           Al  tau(   9) = (   0.2500001   0.4330127   1.8707232  )
        10           Al  tau(  10) = (   0.5833333   0.4330127   1.6350208  )
        11           Al  tau(  11) = (   0.2500001   0.4330127   1.1636163  )
        12           Al  tau(  12) = (   0.0833334   0.1443376   1.6350208  )
        13           Al  tau(  13) = (   0.7500000   0.1443376   1.1636163  )
        14           Al  tau(  14) = (   0.7500000   0.1443376   1.8707232  )
        15           Al  tau(  15) = (   0.4166666   0.1443376   1.3993186  )
        16           Al  tau(  16) = (   0.9166667   0.1443376   1.3993186  )
        17           Al  tau(  17) = (   0.2500001   0.1443376   1.8707232  )
        18           Al  tau(  18) = (   0.5833333   0.1443376   1.6350208  )
        19           Al  tau(  19) = (   0.2500001   0.1443376   1.1636163  )
        20           Al  tau(  20) = (   0.0833334   0.4330127   1.6350208  )
        21           Al  tau(  21) = (   0.7500000   0.4330127   1.1636163  )
        22           Al  tau(  22) = (   0.7500000   0.4330127   1.8707232  )
        23           Al  tau(  23) = (   0.4166666   0.4330127   1.3993186  )
        24           Al  tau(  24) = (   0.1666667   0.0000000   1.3993186  )
        25           Al  tau(  25) = (   0.5000000   0.0000000   1.8707232  )
        26           Al  tau(  26) = (   0.8333333   0.0000000   1.6350208  )
        27           Al  tau(  27) = (   0.5000000   0.0000000   1.1636163  )
        28           Al  tau(  28) = (   0.3333333   0.2886751   1.6350208  )
        29           Al  tau(  29) = (   0.0000000   0.2886751   1.1636163  )
        30           Al  tau(  30) = (   0.0000000   0.2886751   1.8707232  )
        31           Al  tau(  31) = (   0.6666666   0.2886751   1.3993186  )
        32           Al  tau(  32) = (   0.5000000   0.2886751   1.1636163  )

     number of k points=    72  Fermi-Dirac smearing, width (Ry)=  0.0032
                       cart. coord. in units 2pi/alat
        k(    1) = (   0.0416667   0.0721688   0.0000000), wk =   0.0277778
        k(    2) = (   0.0416667   0.2165063   0.0000000), wk =   0.0277778
        k(    3) = (   0.0416667   0.3608439   0.0000000), wk =   0.0277778
        k(    4) = (   0.0416667   0.5051815   0.0000000), wk =   0.0277778
        k(    5) = (   0.0416667   0.6495190   0.0000000), wk =   0.0277778
        k(    6) = (   0.0416667   0.7938566   0.0000000), wk =   0.0277778
        k(    7) = (   0.0416667  -0.7938566   0.0000000), wk =   0.0277778
        k(    8) = (   0.0416667  -0.6495190   0.0000000), wk =   0.0277778
        k(    9) = (   0.0416667  -0.5051815   0.0000000), wk =   0.0277778
        k(   10) = (   0.0416667  -0.3608439   0.0000000), wk =   0.0277778
        k(   11) = (   0.0416667  -0.2165063   0.0000000), wk =   0.0277778
        k(   12) = (   0.0416667  -0.0721688   0.0000000), wk =   0.0277778
        k(   13) = (   0.1250000   0.0721688   0.0000000), wk =   0.0277778
        k(   14) = (   0.1250000   0.2165063   0.0000000), wk =   0.0277778
        k(   15) = (   0.1250000   0.3608439   0.0000000), wk =   0.0277778
        k(   16) = (   0.1250000   0.5051815   0.0000000), wk =   0.0277778
        k(   17) = (   0.1250000   0.6495190   0.0000000), wk =   0.0277778
        k(   18) = (   0.1250000   0.7938566   0.0000000), wk =   0.0277778
        k(   19) = (   0.1250000  -0.7938566   0.0000000), wk =   0.0277778
        k(   20) = (   0.1250000  -0.6495190   0.0000000), wk =   0.0277778
        k(   21) = (   0.1250000  -0.5051815   0.0000000), wk =   0.0277778
        k(   22) = (   0.1250000  -0.3608439   0.0000000), wk =   0.0277778
        k(   23) = (   0.1250000  -0.2165063   0.0000000), wk =   0.0277778
        k(   24) = (   0.1250000  -0.0721688   0.0000000), wk =   0.0277778
        k(   25) = (   0.2083333   0.0721688   0.0000000), wk =   0.0277778
        k(   26) = (   0.2083333   0.2165063   0.0000000), wk =   0.0277778
        k(   27) = (   0.2083333   0.3608439   0.0000000), wk =   0.0277778
        k(   28) = (   0.2083333   0.5051815   0.0000000), wk =   0.0277778
        k(   29) = (   0.2083333   0.6495190   0.0000000), wk =   0.0277778
        k(   30) = (   0.2083333   0.7938566   0.0000000), wk =   0.0277778
        k(   31) = (   0.2083333  -0.7938566   0.0000000), wk =   0.0277778
        k(   32) = (   0.2083333  -0.6495190   0.0000000), wk =   0.0277778
        k(   33) = (   0.2083333  -0.5051815   0.0000000), wk =   0.0277778
        k(   34) = (   0.2083333  -0.3608439   0.0000000), wk =   0.0277778
        k(   35) = (   0.2083333  -0.2165063   0.0000000), wk =   0.0277778
        k(   36) = (   0.2083333  -0.0721688   0.0000000), wk =   0.0277778
        k(   37) = (   0.2916667   0.0721688   0.0000000), wk =   0.0277778
        k(   38) = (   0.2916667   0.2165063   0.0000000), wk =   0.0277778
        k(   39) = (   0.2916667   0.3608439   0.0000000), wk =   0.0277778
        k(   40) = (   0.2916667   0.5051815   0.0000000), wk =   0.0277778
        k(   41) = (   0.2916667   0.6495190   0.0000000), wk =   0.0277778
        k(   42) = (   0.2916667   0.7938566   0.0000000), wk =   0.0277778
        k(   43) = (   0.2916667  -0.7938566   0.0000000), wk =   0.0277778
        k(   44) = (   0.2916667  -0.6495190   0.0000000), wk =   0.0277778
        k(   45) = (   0.2916667  -0.5051815   0.0000000), wk =   0.0277778
        k(   46) = (   0.2916667  -0.3608439   0.0000000), wk =   0.0277778
        k(   47) = (   0.2916667  -0.2165063   0.0000000), wk =   0.0277778
        k(   48) = (   0.2916667  -0.0721688   0.0000000), wk =   0.0277778
        k(   49) = (   0.3750000   0.0721688   0.0000000), wk =   0.0277778
        k(   50) = (   0.3750000   0.2165063   0.0000000), wk =   0.0277778
        k(   51) = (   0.3750000   0.3608439   0.0000000), wk =   0.0277778
        k(   52) = (   0.3750000   0.5051815   0.0000000), wk =   0.0277778
        k(   53) = (   0.3750000   0.6495190   0.0000000), wk =   0.0277778
        k(   54) = (   0.3750000   0.7938566   0.0000000), wk =   0.0277778
        k(   55) = (   0.3750000  -0.7938566   0.0000000), wk =   0.0277778
        k(   56) = (   0.3750000  -0.6495190   0.0000000), wk =   0.0277778
        k(   57) = (   0.3750000  -0.5051815   0.0000000), wk =   0.0277778
        k(   58) = (   0.3750000  -0.3608439   0.0000000), wk =   0.0277778
        k(   59) = (   0.3750000  -0.2165063   0.0000000), wk =   0.0277778
        k(   60) = (   0.3750000  -0.0721688   0.0000000), wk =   0.0277778
        k(   61) = (   0.4583333   0.0721688   0.0000000), wk =   0.0277778
        k(   62) = (   0.4583333   0.2165063   0.0000000), wk =   0.0277778
        k(   63) = (   0.4583333   0.3608439   0.0000000), wk =   0.0277778
        k(   64) = (   0.4583333   0.5051815   0.0000000), wk =   0.0277778
        k(   65) = (   0.4583333   0.6495190   0.0000000), wk =   0.0277778
        k(   66) = (   0.4583333   0.7938566   0.0000000), wk =   0.0277778
        k(   67) = (   0.4583333  -0.7938566   0.0000000), wk =   0.0277778
        k(   68) = (   0.4583333  -0.6495190   0.0000000), wk =   0.0277778
        k(   69) = (   0.4583333  -0.5051815   0.0000000), wk =   0.0277778
        k(   70) = (   0.4583333  -0.3608439   0.0000000), wk =   0.0277778
        k(   71) = (   0.4583333  -0.2165063   0.0000000), wk =   0.0277778
        k(   72) = (   0.4583333  -0.0721688   0.0000000), wk =   0.0277778

     Initial potential from superposition of free atoms

     starting charge      95.9217, renormalised to      96.0000

     negative rho (up, down):  2.622E-05 0.000E+00

     Adding external electric field

     Computed dipole along edir(3) :
        Dipole               -0.0000 Ry au,         -0.0000 Debye
        Dipole field         -0.0000 Ry au,

        E field amplitude [Ha a.u.]:  2.0000E-03
        Potential amp.        0.1814 Ry
[...]
     atom   11 type  1   force =     0.00001846   -0.00000000   -0.00219358
     atom   12 type  1   force =    -0.00000371   -0.00000000   -0.00465180
     atom   13 type  1   force =     0.00001885    0.00000000   -0.00219361
     atom   14 type  1   force =    -0.00001918   -0.00000000    0.00227124
     atom   15 type  1   force =     0.00000375    0.00000000    0.00457374
     atom   16 type  1   force =     0.00000360    0.00000000    0.00457389
     atom   17 type  1   force =    -0.00001892    0.00000000    0.00227160
     atom   18 type  1   force =    -0.00000302   -0.00000000   -0.00465141
     atom   19 type  1   force =     0.00001846    0.00000000   -0.00219358
     atom   20 type  1   force =    -0.00000371    0.00000000   -0.00465180
     atom   21 type  1   force =     0.00001885   -0.00000000   -0.00219361
     atom   22 type  1   force =    -0.00001918   -0.00000000    0.00227124
     atom   23 type  1   force =     0.00000375   -0.00000000    0.00457374
     atom   24 type  1   force =     0.00000358   -0.00000000    0.00457359
     atom   25 type  1   force =    -0.00001865   -0.00000000    0.00227137
     atom   26 type  1   force =    -0.00000352   -0.00000000   -0.00465158
     atom   27 type  1   force =     0.00001858    0.00000000   -0.00219363
     atom   28 type  1   force =    -0.00000317   -0.00000000   -0.00465170
     atom   29 type  1   force =     0.00001884    0.00000000   -0.00219356
     atom   30 type  1   force =    -0.00001930    0.00000000    0.00227141
     atom   31 type  1   force =     0.00000382    0.00000000    0.00457404
     atom   32 type  1   force =     0.00001858   -0.00000000   -0.00219363
     The non-local contrib.  to forces
     atom    1 type  1   force =     0.00009652   -0.00000000   -0.03874301
     atom    2 type  1   force =    -0.00013654    0.00000000   -0.00627530
     atom    3 type  1   force =     0.00013221   -0.00000000    0.00625479
     atom    4 type  1   force =    -0.00009716   -0.00000000    0.03989589
     atom    5 type  1   force =     0.00013215    0.00000000    0.00625515
     atom    6 type  1   force =    -0.00009832    0.00000000    0.03989584
     atom    7 type  1   force =    -0.00013588   -0.00000000   -0.00627543
     atom    8 type  1   force =     0.00013204    0.00000000    0.00625485
     atom    9 type  1   force =    -0.00009823    0.00000000    0.03989615
     atom   10 type  1   force =    -0.00013645   -0.00000000   -0.00627570
     atom   11 type  1   force =     0.00009649   -0.00000000   -0.03874269
     atom   12 type  1   force =    -0.00013605   -0.00000000   -0.00627501
     atom   13 type  1   force =     0.00009657    0.00000000   -0.03874309
     atom   14 type  1   force =    -0.00009759   -0.00000000    0.03989547
     atom   15 type  1   force =     0.00013233    0.00000000    0.00625529
     atom   16 type  1   force =     0.00013204   -0.00000000    0.00625485
     atom   17 type  1   force =    -0.00009823   -0.00000000    0.03989615
     atom   18 type  1   force =    -0.00013645    0.00000000   -0.00627570
     atom   19 type  1   force =     0.00009649    0.00000000   -0.03874269
     atom   20 type  1   force =    -0.00013605   -0.00000000   -0.00627501
     atom   21 type  1   force =     0.00009657   -0.00000000   -0.03874309
     atom   22 type  1   force =    -0.00009759   -0.00000000    0.03989547
     atom   23 type  1   force =     0.00013233   -0.00000000    0.00625529
     atom   24 type  1   force =     0.00013215   -0.00000000    0.00625515
     atom   25 type  1   force =    -0.00009832   -0.00000000    0.03989584
     atom   26 type  1   force =    -0.00013588   -0.00000000   -0.00627543
     atom   27 type  1   force =     0.00009713    0.00000000   -0.03874273
     atom   28 type  1   force =    -0.00013654   -0.00000000   -0.00627530
     atom   29 type  1   force =     0.00009652    0.00000000   -0.03874301
     atom   30 type  1   force =    -0.00009716   -0.00000000    0.03989589
     atom   31 type  1   force =     0.00013221    0.00000000    0.00625479
     atom   32 type  1   force =     0.00009713   -0.00000000   -0.03874273
     The ionic contribution  to forces
     atom    1 type  1   force =    -0.00000000   -0.00000000   -9.24823384
     atom    2 type  1   force =     0.00000003   -0.00000000    3.09440880
     atom    3 type  1   force =     0.00000082   -0.00000000   -3.09440754
     atom    4 type  1   force =    -0.00000006    0.00000000    9.24823264
     atom    5 type  1   force =    -0.00000088   -0.00000000   -3.09440822
     atom    6 type  1   force =     0.00000077   -0.00000000    9.24823313
     atom    7 type  1   force =     0.00000001    0.00000000    3.09440847
     atom    8 type  1   force =    -0.00000089    0.00000000   -3.09440749
     atom    9 type  1   force =    -0.00000111   -0.00000000    9.24823334
     atom   10 type  1   force =     0.00000155   -0.00000000    3.09440844
     atom   11 type  1   force =    -0.00000103    0.00000000   -9.24823420
     atom   12 type  1   force =    -0.00000155   -0.00000000    3.09440910
     atom   13 type  1   force =     0.00000024   -0.00000000   -9.24823341
     atom   14 type  1   force =     0.00000035   -0.00000000    9.24823248
     atom   15 type  1   force =     0.00000103    0.00000000   -3.09440795
     atom   16 type  1   force =    -0.00000089   -0.00000000   -3.09440749
     atom   17 type  1   force =    -0.00000111    0.00000000    9.24823334
     atom   18 type  1   force =     0.00000155   -0.00000000    3.09440844
     atom   19 type  1   force =    -0.00000103   -0.00000000   -9.24823420
     atom   20 type  1   force =    -0.00000155    0.00000000    3.09440910
     atom   21 type  1   force =     0.00000024   -0.00000000   -9.24823341
     atom   22 type  1   force =     0.00000035    0.00000000    9.24823248
     atom   23 type  1   force =     0.00000103    0.00000000   -3.09440795
     atom   24 type  1   force =    -0.00000088   -0.00000000   -3.09440822
     atom   25 type  1   force =     0.00000077   -0.00000000    9.24823313
     atom   26 type  1   force =     0.00000001   -0.00000000    3.09440847
     atom   27 type  1   force =     0.00000071    0.00000000   -9.24823377
     atom   28 type  1   force =     0.00000003   -0.00000000    3.09440880
     atom   29 type  1   force =    -0.00000000   -0.00000000   -9.24823384
     atom   30 type  1   force =    -0.00000006    0.00000000    9.24823264
     atom   31 type  1   force =     0.00000082    0.00000000   -3.09440754
     atom   32 type  1   force =     0.00000071   -0.00000000   -9.24823377
     The local contribution  to forces
     atom    1 type  1   force =    -0.00006979   -0.00000000    9.27267734
     atom    2 type  1   force =     0.00012663   -0.00000000   -3.10092331
     atom    3 type  1   force =    -0.00011969    0.00000000    3.08527153
     atom    4 type  1   force =     0.00006591    0.00000000   -9.28926679
     atom    5 type  1   force =    -0.00011922    0.00000000    3.08526711
     atom    6 type  1   force =     0.00007827    0.00000000   -9.28926703
     atom    7 type  1   force =     0.00012052    0.00000000   -3.10091972
     atom    8 type  1   force =    -0.00011897   -0.00000000    3.08527063
     atom    9 type  1   force =     0.00007529   -0.00000000   -9.28926619
     atom   10 type  1   force =     0.00012658    0.00000000   -3.10091883
     atom   11 type  1   force =    -0.00007037   -0.00000000    9.27267690
     atom   12 type  1   force =     0.00012065   -0.00000000   -3.10092438
     atom   13 type  1   force =    -0.00007195    0.00000000    9.27267697
     atom   14 type  1   force =     0.00007036    0.00000000   -9.28926741
     atom   15 type  1   force =    -0.00012023   -0.00000000    3.08526743
     atom   16 type  1   force =    -0.00011897    0.00000000    3.08527063
     atom   17 type  1   force =     0.00007529    0.00000000   -9.28926619
     atom   18 type  1   force =     0.00012658   -0.00000000   -3.10091883
     atom   19 type  1   force =    -0.00007037   -0.00000000    9.27267690
     atom   20 type  1   force =     0.00012065    0.00000000   -3.10092438
     atom   21 type  1   force =    -0.00007195   -0.00000000    9.27267697
     atom   22 type  1   force =     0.00007036    0.00000000   -9.28926741
     atom   23 type  1   force =    -0.00012023    0.00000000    3.08526743
     atom   24 type  1   force =    -0.00011922   -0.00000000    3.08526711
     atom   25 type  1   force =     0.00007827   -0.00000000   -9.28926703
     atom   26 type  1   force =     0.00012052   -0.00000000   -3.10091972
     atom   27 type  1   force =    -0.00007461   -0.00000000    9.27267643
     atom   28 type  1   force =     0.00012663    0.00000000   -3.10092331
     atom   29 type  1   force =    -0.00006979    0.00000000    9.27267734
     atom   30 type  1   force =     0.00006591    0.00000000   -9.28926679
     atom   31 type  1   force =    -0.00011969    0.00000000    3.08527153
     atom   32 type  1   force =    -0.00007461    0.00000000    9.27267643
     The core correction contribution to forces
     atom    1 type  1   force =    -0.00000628   -0.00000000    0.00430171
     atom    2 type  1   force =     0.00000929   -0.00000000    0.00034414
     atom    3 type  1   force =    -0.00000899    0.00000000   -0.00034380
     atom    4 type  1   force =     0.00000631    0.00000000   -0.00438200
     atom    5 type  1   force =    -0.00000898   -0.00000000   -0.00034383
     atom    6 type  1   force =     0.00000641   -0.00000000   -0.00438200
     atom    7 type  1   force =     0.00000924    0.00000000    0.00034416
     atom    8 type  1   force =    -0.00000897   -0.00000000   -0.00034381
     atom    9 type  1   force =     0.00000640   -0.00000000   -0.00438201
     atom   10 type  1   force =     0.00000929    0.00000000    0.00034418
     atom   11 type  1   force =    -0.00000627    0.00000000    0.00430169
     atom   12 type  1   force =     0.00000925   -0.00000000    0.00034412
     atom   13 type  1   force =    -0.00000629   -0.00000000    0.00430172
     atom   14 type  1   force =     0.00000635    0.00000000   -0.00438197
     atom   15 type  1   force =    -0.00000900   -0.00000000   -0.00034384
     atom   16 type  1   force =    -0.00000897    0.00000000   -0.00034381
     atom   17 type  1   force =     0.00000640    0.00000000   -0.00438201
     atom   18 type  1   force =     0.00000929   -0.00000000    0.00034418
     atom   19 type  1   force =    -0.00000627   -0.00000000    0.00430169
     atom   20 type  1   force =     0.00000925    0.00000000    0.00034412
     atom   21 type  1   force =    -0.00000629    0.00000000    0.00430172
     atom   22 type  1   force =     0.00000635    0.00000000   -0.00438197
     atom   23 type  1   force =    -0.00000900   -0.00000000   -0.00034384
     atom   24 type  1   force =    -0.00000898   -0.00000000   -0.00034383
     atom   25 type  1   force =     0.00000641    0.00000000   -0.00438200
     atom   26 type  1   force =     0.00000924    0.00000000    0.00034416
     atom   27 type  1   force =    -0.00000633   -0.00000000    0.00430169
     atom   28 type  1   force =     0.00000929   -0.00000000    0.00034414
     atom   29 type  1   force =    -0.00000628    0.00000000    0.00430171
     atom   30 type  1   force =     0.00000631    0.00000000   -0.00438200
     atom   31 type  1   force =    -0.00000899    0.00000000   -0.00034380
     atom   32 type  1   force =    -0.00000633    0.00000000    0.00430169
     The Hubbard contrib.    to forces
     atom    1 type  1   force =     0.00000000    0.00000000    0.00000000
     atom    2 type  1   force =     0.00000000    0.00000000    0.00000000
     atom    3 type  1   force =     0.00000000    0.00000000    0.00000000
     atom    4 type  1   force =     0.00000000    0.00000000    0.00000000
     atom    5 type  1   force =     0.00000000    0.00000000    0.00000000
     atom    6 type  1   force =     0.00000000    0.00000000    0.00000000
     atom    7 type  1   force =     0.00000000    0.00000000    0.00000000
     atom    8 type  1   force =     0.00000000    0.00000000    0.00000000
     atom    9 type  1   force =     0.00000000    0.00000000    0.00000000
     atom   10 type  1   force =     0.00000000    0.00000000    0.00000000
     atom   11 type  1   force =     0.00000000    0.00000000    0.00000000
     atom   12 type  1   force =     0.00000000    0.00000000    0.00000000
     atom   13 type  1   force =     0.00000000    0.00000000    0.00000000
     atom   14 type  1   force =     0.00000000    0.00000000    0.00000000
     atom   15 type  1   force =     0.00000000    0.00000000    0.00000000
     atom   16 type  1   force =     0.00000000    0.00000000    0.00000000
     atom   17 type  1   force =     0.00000000    0.00000000    0.00000000
     atom   18 type  1   force =     0.00000000    0.00000000    0.00000000
     atom   19 type  1   force =     0.00000000    0.00000000    0.00000000
     atom   20 type  1   force =     0.00000000    0.00000000    0.00000000
     atom   21 type  1   force =     0.00000000    0.00000000    0.00000000
     atom   22 type  1   force =     0.00000000    0.00000000    0.00000000
     atom   23 type  1   force =     0.00000000    0.00000000    0.00000000
     atom   24 type  1   force =     0.00000000    0.00000000    0.00000000
     atom   25 type  1   force =     0.00000000    0.00000000    0.00000000
     atom   26 type  1   force =     0.00000000    0.00000000    0.00000000
     atom   27 type  1   force =     0.00000000    0.00000000    0.00000000
     atom   28 type  1   force =     0.00000000    0.00000000    0.00000000
     atom   29 type  1   force =     0.00000000    0.00000000    0.00000000
     atom   30 type  1   force =     0.00000000    0.00000000    0.00000000
     atom   31 type  1   force =     0.00000000    0.00000000    0.00000000
     atom   32 type  1   force =     0.00000000    0.00000000    0.00000000
     The SCF correction term to forces
     atom    1 type  1   force =    -0.00000160    0.00000000   -0.00000002
     atom    2 type  1   force =    -0.00000259    0.00000000   -0.00001029
     atom    3 type  1   force =    -0.00000052   -0.00000000   -0.00000520
     atom    4 type  1   force =     0.00000570   -0.00000000   -0.00001259
     atom    5 type  1   force =     0.00000052   -0.00000000   -0.00000087
     atom    6 type  1   force =    -0.00000578   -0.00000000   -0.00001282
     atom    7 type  1   force =     0.00000259   -0.00000000   -0.00001330
     atom    8 type  1   force =     0.00000039    0.00000000   -0.00000455
     atom    9 type  1   force =    -0.00000127    0.00000000   -0.00001394
     atom   10 type  1   force =    -0.00000399   -0.00000000   -0.00001375
     atom   11 type  1   force =    -0.00000036    0.00000000    0.00000047
     atom   12 type  1   force =     0.00000399    0.00000000   -0.00000988
     atom   13 type  1   force =     0.00000028   -0.00000000   -0.00000005
     atom   14 type  1   force =     0.00000136   -0.00000000   -0.00001158
     atom   15 type  1   force =    -0.00000039    0.00000000   -0.00000143
     atom   16 type  1   force =     0.00000039   -0.00000000   -0.00000455
     atom   17 type  1   force =    -0.00000127   -0.00000000   -0.00001394
     atom   18 type  1   force =    -0.00000399    0.00000000   -0.00001375
     atom   19 type  1   force =    -0.00000036   -0.00000000    0.00000047
     atom   20 type  1   force =     0.00000399   -0.00000000   -0.00000988
     atom   21 type  1   force =     0.00000028    0.00000000   -0.00000005
     atom   22 type  1   force =     0.00000136    0.00000000   -0.00001158
     atom   23 type  1   force =    -0.00000039   -0.00000000   -0.00000143
     atom   24 type  1   force =     0.00000052    0.00000000   -0.00000087
     atom   25 type  1   force =    -0.00000578    0.00000000   -0.00001282
     atom   26 type  1   force =     0.00000259    0.00000000   -0.00001330
     atom   27 type  1   force =     0.00000168    0.00000000    0.00000050
     atom   28 type  1   force =    -0.00000259   -0.00000000   -0.00001029
     atom   29 type  1   force =    -0.00000160   -0.00000000   -0.00000002
     atom   30 type  1   force =     0.00000570    0.00000000   -0.00001259
     atom   31 type  1   force =    -0.00000052    0.00000000   -0.00000520
     atom   32 type  1   force =     0.00000168   -0.00000000    0.00000050

     Total force =     0.020500     Total SCF correction =     0.000053

     Writing all to output data dir ./temp/onlyAl_0D002.save/

     General routines

     Parallel routines

   This run was terminated on:  21:51:50  20Mar2025

   JOB DONE.