     Program PWSCF v.7.2 starts on 20Mar2025 at 21:54:38

     Reading input from Al111slab_M0D004Ha.sc.in

     Current dimensions of program PWSCF are:
     Max number of different atomic species (ntypx) = 10
     Max number of k-points (npk) =  40000
     Max angular momentum in pseudopotentials (lmaxx) =  4
     Found identity + (  0.2500 -0.2500  0.0000) symmetry
     This is a supercell, fractional translations are disabled

     K-points division:     npool     =      12
     R & G space division:  proc/nbgrp/npool/nimage =      16
     Subspace diagonalization in iterative solution of the eigenvalue problem:
     a serial algorithm will be used

     Using Slab Decomposition

     bravais-lattice index     =            0
     lattice parameter (alat)  =      18.6834  a.u.
     unit-cell volume          =   11425.3995 (a.u.)^3
     number of atoms/cell      =           32
     number of atomic types    =            1
     number of electrons       =        96.00
     number of Kohn-Sham states=           58
     kinetic-energy cutoff     =     100.0000  Ry
     charge density cutoff     =     400.0000  Ry
     scf convergence threshold =      1.0E-09
     mixing beta               =       0.7000
     number of iterations used =            8  plain     mixing
     Exchange-correlation= PBE
                           (   1   4   3   4   0   0   0)

     celldm(1)=  18.683402  celldm(2)=   0.000000  celldm(3)=   0.000000
     celldm(4)=   0.000000  celldm(5)=   0.000000  celldm(6)=   0.000000

     crystal axes: (cart. coord. in units of alat)
               a(1) = (   1.000000   0.000000   0.000000 )
               a(2) = (   0.000000   0.577350   0.000000 )
               a(3) = (   0.000000   0.000000   3.034340 )

     reciprocal axes: (cart. coord. in units 2 pi/alat)
               b(1) = (  1.000000  0.000000  0.000000 )
               b(2) = (  0.000000  1.732051  0.000000 )
               b(3) = (  0.000000  0.000000  0.329561 )

     PseudoPot. # 1 for Al read from file:
     ./Al.upf
     MD5 check sum: a92309766db89a6b54a5f8790cc4d69e
     Pseudo is Norm-conserving + core correction, Zval =  3.0
     Generated using ONCVPSP code by D. R. Hamann
     Using radial grid of 1876 points,  6 beta functions with:
                l(1) =   0
                l(2) =   0
                l(3) =   1
                l(4) =   1
                l(5) =   2
                l(6) =   2

     atomic species   valence    mass     pseudopotential
        Al             3.00    26.00000     Al( 1.00)

     No symmetry found

   Cartesian axes

     site n.     atom                  positions (alat units)
         1           Al  tau(   1) = (   0.0000000   0.0000000   1.1636163  )
         2           Al  tau(   2) = (   0.3333333   0.0000000   1.6350208  )
         3           Al  tau(   3) = (   0.6666666   0.0000000   1.3993186  )
         4           Al  tau(   4) = (   0.0000000   0.0000000   1.8707232  )
         5           Al  tau(   5) = (   0.1666667   0.2886751   1.3993186  )
         6           Al  tau(   6) = (   0.5000000   0.2886751   1.8707232  )
         7           Al  tau(   7) = (   0.8333333   0.2886751   1.6350208  )
         8           Al  tau(   8) = (   0.9166667   0.4330127   1.3993186  )
         9           Al  tau(   9) = (   0.2500001   0.4330127   1.8707232  )
        10           Al  tau(  10) = (   0.5833333   0.4330127   1.6350208  )
        11           Al  tau(  11) = (   0.2500001   0.4330127   1.1636163  )
        12           Al  tau(  12) = (   0.0833334   0.1443376   1.6350208  )
        13           Al  tau(  13) = (   0.7500000   0.1443376   1.1636163  )
        14           Al  tau(  14) = (   0.7500000   0.1443376   1.8707232  )
        15           Al  tau(  15) = (   0.4166666   0.1443376   1.3993186  )
        16           Al  tau(  16) = (   0.9166667   0.1443376   1.3993186  )
        17           Al  tau(  17) = (   0.2500001   0.1443376   1.8707232  )
        18           Al  tau(  18) = (   0.5833333   0.1443376   1.6350208  )
        19           Al  tau(  19) = (   0.2500001   0.1443376   1.1636163  )
        20           Al  tau(  20) = (   0.0833334   0.4330127   1.6350208  )
        21           Al  tau(  21) = (   0.7500000   0.4330127   1.1636163  )
        22           Al  tau(  22) = (   0.7500000   0.4330127   1.8707232  )
        23           Al  tau(  23) = (   0.4166666   0.4330127   1.3993186  )
        24           Al  tau(  24) = (   0.1666667   0.0000000   1.3993186  )
        25           Al  tau(  25) = (   0.5000000   0.0000000   1.8707232  )
        26           Al  tau(  26) = (   0.8333333   0.0000000   1.6350208  )
        27           Al  tau(  27) = (   0.5000000   0.0000000   1.1636163  )
        28           Al  tau(  28) = (   0.3333333   0.2886751   1.6350208  )
        29           Al  tau(  29) = (   0.0000000   0.2886751   1.1636163  )
        30           Al  tau(  30) = (   0.0000000   0.2886751   1.8707232  )
        31           Al  tau(  31) = (   0.6666666   0.2886751   1.3993186  )
        32           Al  tau(  32) = (   0.5000000   0.2886751   1.1636163  )

     number of k points=    72  Fermi-Dirac smearing, width (Ry)=  0.0032
                       cart. coord. in units 2pi/alat
        k(    1) = (   0.0416667   0.0721688   0.0000000), wk =   0.0277778
        k(    2) = (   0.0416667   0.2165063   0.0000000), wk =   0.0277778
        k(    3) = (   0.0416667   0.3608439   0.0000000), wk =   0.0277778
        k(    4) = (   0.0416667   0.5051815   0.0000000), wk =   0.0277778
        k(    5) = (   0.0416667   0.6495190   0.0000000), wk =   0.0277778
        k(    6) = (   0.0416667   0.7938566   0.0000000), wk =   0.0277778
        k(    7) = (   0.0416667  -0.7938566   0.0000000), wk =   0.0277778
        k(    8) = (   0.0416667  -0.6495190   0.0000000), wk =   0.0277778
        k(    9) = (   0.0416667  -0.5051815   0.0000000), wk =   0.0277778
        k(   10) = (   0.0416667  -0.3608439   0.0000000), wk =   0.0277778
        k(   11) = (   0.0416667  -0.2165063   0.0000000), wk =   0.0277778
        k(   12) = (   0.0416667  -0.0721688   0.0000000), wk =   0.0277778
        k(   13) = (   0.1250000   0.0721688   0.0000000), wk =   0.0277778
        k(   14) = (   0.1250000   0.2165063   0.0000000), wk =   0.0277778
        k(   15) = (   0.1250000   0.3608439   0.0000000), wk =   0.0277778
        k(   16) = (   0.1250000   0.5051815   0.0000000), wk =   0.0277778
        k(   17) = (   0.1250000   0.6495190   0.0000000), wk =   0.0277778
        k(   18) = (   0.1250000   0.7938566   0.0000000), wk =   0.0277778
        k(   19) = (   0.1250000  -0.7938566   0.0000000), wk =   0.0277778
        k(   20) = (   0.1250000  -0.6495190   0.0000000), wk =   0.0277778
        k(   21) = (   0.1250000  -0.5051815   0.0000000), wk =   0.0277778
        k(   22) = (   0.1250000  -0.3608439   0.0000000), wk =   0.0277778
        k(   23) = (   0.1250000  -0.2165063   0.0000000), wk =   0.0277778
        k(   24) = (   0.1250000  -0.0721688   0.0000000), wk =   0.0277778
        k(   25) = (   0.2083333   0.0721688   0.0000000), wk =   0.0277778
        k(   26) = (   0.2083333   0.2165063   0.0000000), wk =   0.0277778
        k(   27) = (   0.2083333   0.3608439   0.0000000), wk =   0.0277778
        k(   28) = (   0.2083333   0.5051815   0.0000000), wk =   0.0277778
        k(   29) = (   0.2083333   0.6495190   0.0000000), wk =   0.0277778
        k(   30) = (   0.2083333   0.7938566   0.0000000), wk =   0.0277778
        k(   31) = (   0.2083333  -0.7938566   0.0000000), wk =   0.0277778
        k(   32) = (   0.2083333  -0.6495190   0.0000000), wk =   0.0277778
        k(   33) = (   0.2083333  -0.5051815   0.0000000), wk =   0.0277778
        k(   34) = (   0.2083333  -0.3608439   0.0000000), wk =   0.0277778
        k(   35) = (   0.2083333  -0.2165063   0.0000000), wk =   0.0277778
        k(   36) = (   0.2083333  -0.0721688   0.0000000), wk =   0.0277778
        k(   37) = (   0.2916667   0.0721688   0.0000000), wk =   0.0277778
        k(   38) = (   0.2916667   0.2165063   0.0000000), wk =   0.0277778
        k(   39) = (   0.2916667   0.3608439   0.0000000), wk =   0.0277778
        k(   40) = (   0.2916667   0.5051815   0.0000000), wk =   0.0277778
        k(   41) = (   0.2916667   0.6495190   0.0000000), wk =   0.0277778
        k(   42) = (   0.2916667   0.7938566   0.0000000), wk =   0.0277778
        k(   43) = (   0.2916667  -0.7938566   0.0000000), wk =   0.0277778
        k(   44) = (   0.2916667  -0.6495190   0.0000000), wk =   0.0277778
        k(   45) = (   0.2916667  -0.5051815   0.0000000), wk =   0.0277778
        k(   46) = (   0.2916667  -0.3608439   0.0000000), wk =   0.0277778
        k(   47) = (   0.2916667  -0.2165063   0.0000000), wk =   0.0277778
        k(   48) = (   0.2916667  -0.0721688   0.0000000), wk =   0.0277778
        k(   49) = (   0.3750000   0.0721688   0.0000000), wk =   0.0277778
        k(   50) = (   0.3750000   0.2165063   0.0000000), wk =   0.0277778
        k(   51) = (   0.3750000   0.3608439   0.0000000), wk =   0.0277778
        k(   52) = (   0.3750000   0.5051815   0.0000000), wk =   0.0277778
        k(   53) = (   0.3750000   0.6495190   0.0000000), wk =   0.0277778
        k(   54) = (   0.3750000   0.7938566   0.0000000), wk =   0.0277778
        k(   55) = (   0.3750000  -0.7938566   0.0000000), wk =   0.0277778
        k(   56) = (   0.3750000  -0.6495190   0.0000000), wk =   0.0277778
        k(   57) = (   0.3750000  -0.5051815   0.0000000), wk =   0.0277778
        k(   58) = (   0.3750000  -0.3608439   0.0000000), wk =   0.0277778
        k(   59) = (   0.3750000  -0.2165063   0.0000000), wk =   0.0277778
        k(   60) = (   0.3750000  -0.0721688   0.0000000), wk =   0.0277778
        k(   61) = (   0.4583333   0.0721688   0.0000000), wk =   0.0277778
        k(   62) = (   0.4583333   0.2165063   0.0000000), wk =   0.0277778
        k(   63) = (   0.4583333   0.3608439   0.0000000), wk =   0.0277778
        k(   64) = (   0.4583333   0.5051815   0.0000000), wk =   0.0277778
        k(   65) = (   0.4583333   0.6495190   0.0000000), wk =   0.0277778
        k(   66) = (   0.4583333   0.7938566   0.0000000), wk =   0.0277778
        k(   67) = (   0.4583333  -0.7938566   0.0000000), wk =   0.0277778
        k(   68) = (   0.4583333  -0.6495190   0.0000000), wk =   0.0277778
        k(   69) = (   0.4583333  -0.5051815   0.0000000), wk =   0.0277778
        k(   70) = (   0.4583333  -0.3608439   0.0000000), wk =   0.0277778
        k(   71) = (   0.4583333  -0.2165063   0.0000000), wk =   0.0277778
        k(   72) = (   0.4583333  -0.0721688   0.0000000), wk =   0.0277778

     Initial potential from superposition of free atoms

     starting charge      95.9217, renormalised to      96.0000

     negative rho (up, down):  2.622E-05 0.000E+00

     Adding external electric field

     Computed dipole along edir(3) :
        Dipole               -0.0000 Ry au,         -0.0000 Debye
        Dipole field         -0.0000 Ry au,

        E field amplitude [Ha a.u.]: -4.0000E-03
        Potential amp.       -0.3628 Ry
[...]
     atom   11 type  1   force =     0.00001848   -0.00000000   -0.00233815
     atom   12 type  1   force =    -0.00000378    0.00000000   -0.00453545
     atom   13 type  1   force =     0.00001965   -0.00000000   -0.00233750
     atom   14 type  1   force =    -0.00001879    0.00000000    0.00218223
     atom   15 type  1   force =     0.00000338   -0.00000000    0.00469156
     atom   16 type  1   force =     0.00000290   -0.00000000    0.00469068
     atom   17 type  1   force =    -0.00001821    0.00000000    0.00218192
     atom   18 type  1   force =    -0.00000389   -0.00000000   -0.00453523
     atom   19 type  1   force =     0.00001848   -0.00000000   -0.00233815
     atom   20 type  1   force =    -0.00000378    0.00000000   -0.00453545
     atom   21 type  1   force =     0.00001965   -0.00000000   -0.00233750
     atom   22 type  1   force =    -0.00001879    0.00000000    0.00218223
     atom   23 type  1   force =     0.00000338   -0.00000000    0.00469156
     atom   24 type  1   force =     0.00000278   -0.00000000    0.00469118
     atom   25 type  1   force =    -0.00001867   -0.00000000    0.00218201
     atom   26 type  1   force =    -0.00000383    0.00000000   -0.00453580
     atom   27 type  1   force =     0.00001958    0.00000000   -0.00233814
     atom   28 type  1   force =    -0.00000381   -0.00000000   -0.00453493
     atom   29 type  1   force =     0.00001861    0.00000000   -0.00233761
     atom   30 type  1   force =    -0.00001824   -0.00000000    0.00218220
     atom   31 type  1   force =     0.00000384   -0.00000000    0.00469103
     atom   32 type  1   force =     0.00001958    0.00000000   -0.00233814
     The non-local contrib.  to forces
     atom    1 type  1   force =     0.00009899    0.00000000   -0.04053526
     atom    2 type  1   force =    -0.00012952   -0.00000000   -0.00623977
     atom    3 type  1   force =     0.00013732   -0.00000000    0.00627995
     atom    4 type  1   force =    -0.00009576   -0.00000000    0.03823038
     atom    5 type  1   force =     0.00013853   -0.00000000    0.00627933
     atom    6 type  1   force =    -0.00009569   -0.00000000    0.03823004
     atom    7 type  1   force =    -0.00012988    0.00000000   -0.00623876
     atom    8 type  1   force =     0.00013788    0.00000000    0.00628017
     atom    9 type  1   force =    -0.00009684    0.00000000    0.03823090
     atom   10 type  1   force =    -0.00012931    0.00000000   -0.00623954
     atom   11 type  1   force =     0.00009855    0.00000000   -0.04053517
     atom   12 type  1   force =    -0.00013048    0.00000000   -0.00623888
     atom   13 type  1   force =     0.00009724   -0.00000000   -0.04053493
     atom   14 type  1   force =    -0.00009532    0.00000000    0.03822932
     atom   15 type  1   force =     0.00013858    0.00000000    0.00627927
     atom   16 type  1   force =     0.00013788   -0.00000000    0.00628017
     atom   17 type  1   force =    -0.00009684    0.00000000    0.03823090
     atom   18 type  1   force =    -0.00012931    0.00000000   -0.00623954
     atom   19 type  1   force =     0.00009855    0.00000000   -0.04053517
     atom   20 type  1   force =    -0.00013048    0.00000000   -0.00623888
     atom   21 type  1   force =     0.00009724   -0.00000000   -0.04053493
     atom   22 type  1   force =    -0.00009532    0.00000000    0.03822932
     atom   23 type  1   force =     0.00013858    0.00000000    0.00627927
     atom   24 type  1   force =     0.00013853   -0.00000000    0.00627933
     atom   25 type  1   force =    -0.00009569   -0.00000000    0.03823004
     atom   26 type  1   force =    -0.00012988    0.00000000   -0.00623876
     atom   27 type  1   force =     0.00009743    0.00000000   -0.04053481
     atom   28 type  1   force =    -0.00012952   -0.00000000   -0.00623977
     atom   29 type  1   force =     0.00009899    0.00000000   -0.04053526
     atom   30 type  1   force =    -0.00009576   -0.00000000    0.03823038
     atom   31 type  1   force =     0.00013732    0.00000000    0.00627995
     atom   32 type  1   force =     0.00009743    0.00000000   -0.04053481
     The ionic contribution  to forces
     atom    1 type  1   force =    -0.00000000   -0.00000000   -9.24823384
     atom    2 type  1   force =     0.00000003   -0.00000000    3.09440880
     atom    3 type  1   force =     0.00000082   -0.00000000   -3.09440754
     atom    4 type  1   force =    -0.00000006    0.00000000    9.24823264
     atom    5 type  1   force =    -0.00000088   -0.00000000   -3.09440822
     atom    6 type  1   force =     0.00000077   -0.00000000    9.24823313
     atom    7 type  1   force =     0.00000001    0.00000000    3.09440847
     atom    8 type  1   force =    -0.00000089    0.00000000   -3.09440749
     atom    9 type  1   force =    -0.00000111   -0.00000000    9.24823334
     atom   10 type  1   force =     0.00000155   -0.00000000    3.09440844
     atom   11 type  1   force =    -0.00000103    0.00000000   -9.24823420
     atom   12 type  1   force =    -0.00000155   -0.00000000    3.09440910
     atom   13 type  1   force =     0.00000024   -0.00000000   -9.24823341
     atom   14 type  1   force =     0.00000035   -0.00000000    9.24823248
     atom   15 type  1   force =     0.00000103    0.00000000   -3.09440795
     atom   16 type  1   force =    -0.00000089   -0.00000000   -3.09440749
     atom   17 type  1   force =    -0.00000111    0.00000000    9.24823334
     atom   18 type  1   force =     0.00000155   -0.00000000    3.09440844
     atom   19 type  1   force =    -0.00000103   -0.00000000   -9.24823420
     atom   20 type  1   force =    -0.00000155    0.00000000    3.09440910
     atom   21 type  1   force =     0.00000024   -0.00000000   -9.24823341
     atom   22 type  1   force =     0.00000035    0.00000000    9.24823248
     atom   23 type  1   force =     0.00000103    0.00000000   -3.09440795
     atom   24 type  1   force =    -0.00000088   -0.00000000   -3.09440822
     atom   25 type  1   force =     0.00000077   -0.00000000    9.24823313
     atom   26 type  1   force =     0.00000001   -0.00000000    3.09440847
     atom   27 type  1   force =     0.00000071    0.00000000   -9.24823377
     atom   28 type  1   force =     0.00000003   -0.00000000    3.09440880
     atom   29 type  1   force =    -0.00000000   -0.00000000   -9.24823384
     atom   30 type  1   force =    -0.00000006    0.00000000    9.24823264
     atom   31 type  1   force =     0.00000082    0.00000000   -3.09440754
     atom   32 type  1   force =     0.00000071   -0.00000000   -9.24823377
     The local contribution  to forces
     atom    1 type  1   force =    -0.00007766    0.00000000    9.29761092
     atom    2 type  1   force =     0.00011581   -0.00000000   -3.07744607
     atom    3 type  1   force =    -0.00011940    0.00000000    3.10876399
     atom    4 type  1   force =     0.00007219    0.00000000   -9.26441515
     atom    5 type  1   force =    -0.00013050   -0.00000000    3.10876761
     atom    6 type  1   force =     0.00006897   -0.00000000   -9.26441491
     atom    7 type  1   force =     0.00011801    0.00000000   -3.07745316
     atom    8 type  1   force =    -0.00012307   -0.00000000    3.10876078
     atom    9 type  1   force =     0.00007769    0.00000000   -9.26441800
     atom   10 type  1   force =     0.00011327   -0.00000000   -3.07744570
     atom   11 type  1   force =    -0.00007884   -0.00000000    9.29760912
     atom   12 type  1   force =     0.00012149   -0.00000000   -3.07745383
     atom   13 type  1   force =    -0.00006512    0.00000000    9.29760859
     atom   14 type  1   force =     0.00006595   -0.00000000   -9.26441210
     atom   15 type  1   force =    -0.00012893   -0.00000000    3.10877034
     atom   16 type  1   force =    -0.00012307    0.00000000    3.10876078
     atom   17 type  1   force =     0.00007769   -0.00000000   -9.26441800
     atom   18 type  1   force =     0.00011327   -0.00000000   -3.07744570
     atom   19 type  1   force =    -0.00007884   -0.00000000    9.29760912
     atom   20 type  1   force =     0.00012149   -0.00000000   -3.07745383
     atom   21 type  1   force =    -0.00006512    0.00000000    9.29760859
     atom   22 type  1   force =     0.00006595   -0.00000000   -9.26441210
     atom   23 type  1   force =    -0.00012893   -0.00000000    3.10877034
     atom   24 type  1   force =    -0.00013050   -0.00000000    3.10876761
     atom   25 type  1   force =     0.00006897    0.00000000   -9.26441491
     atom   26 type  1   force =     0.00011801   -0.00000000   -3.07745316
     atom   27 type  1   force =    -0.00006868   -0.00000000    9.29760652
     atom   28 type  1   force =     0.00011581   -0.00000000   -3.07744607
     atom   29 type  1   force =    -0.00007766   -0.00000000    9.29761092
     atom   30 type  1   force =     0.00007219    0.00000000   -9.26441515
     atom   31 type  1   force =    -0.00011940   -0.00000000    3.10876399
     atom   32 type  1   force =    -0.00006868   -0.00000000    9.29760652
     The core correction contribution to forces
     atom    1 type  1   force =    -0.00000645   -0.00000000    0.00442661
     atom    2 type  1   force =     0.00000880    0.00000000    0.00034328
     atom    3 type  1   force =    -0.00000933    0.00000000   -0.00034394
     atom    4 type  1   force =     0.00000623    0.00000000   -0.00426606
     atom    5 type  1   force =    -0.00000943    0.00000000   -0.00034389
     atom    6 type  1   force =     0.00000623   -0.00000000   -0.00426604
     atom    7 type  1   force =     0.00000883   -0.00000000    0.00034320
     atom    8 type  1   force =    -0.00000938   -0.00000000   -0.00034396
     atom    9 type  1   force =     0.00000632   -0.00000000   -0.00426611
     atom   10 type  1   force =     0.00000878   -0.00000000    0.00034327
     atom   11 type  1   force =    -0.00000642   -0.00000000    0.00442660
     atom   12 type  1   force =     0.00000888   -0.00000000    0.00034321
     atom   13 type  1   force =    -0.00000631    0.00000000    0.00442658
     atom   14 type  1   force =     0.00000620   -0.00000000   -0.00426598
     atom   15 type  1   force =    -0.00000944   -0.00000000   -0.00034388
     atom   16 type  1   force =    -0.00000938    0.00000000   -0.00034396
     atom   17 type  1   force =     0.00000632   -0.00000000   -0.00426611
     atom   18 type  1   force =     0.00000878   -0.00000000    0.00034327
     atom   19 type  1   force =    -0.00000642   -0.00000000    0.00442660
     atom   20 type  1   force =     0.00000888   -0.00000000    0.00034321
     atom   21 type  1   force =    -0.00000631    0.00000000    0.00442658
     atom   22 type  1   force =     0.00000620   -0.00000000   -0.00426598
     atom   23 type  1   force =    -0.00000944   -0.00000000   -0.00034388
     atom   24 type  1   force =    -0.00000943    0.00000000   -0.00034389
     atom   25 type  1   force =     0.00000623    0.00000000   -0.00426604
     atom   26 type  1   force =     0.00000883   -0.00000000    0.00034320
     atom   27 type  1   force =    -0.00000633   -0.00000000    0.00442657
     atom   28 type  1   force =     0.00000880   -0.00000000    0.00034328
     atom   29 type  1   force =    -0.00000645   -0.00000000    0.00442661
     atom   30 type  1   force =     0.00000623    0.00000000   -0.00426606
     atom   31 type  1   force =    -0.00000933   -0.00000000   -0.00034394
     atom   32 type  1   force =    -0.00000633   -0.00000000    0.00442657
     The Hubbard contrib.    to forces
     atom    1 type  1   force =     0.00000000    0.00000000    0.00000000
     atom    2 type  1   force =     0.00000000    0.00000000    0.00000000
     atom    3 type  1   force =     0.00000000    0.00000000    0.00000000
     atom    4 type  1   force =     0.00000000    0.00000000    0.00000000
     atom    5 type  1   force =     0.00000000    0.00000000    0.00000000
     atom    6 type  1   force =     0.00000000    0.00000000    0.00000000
     atom    7 type  1   force =     0.00000000    0.00000000    0.00000000
     atom    8 type  1   force =     0.00000000    0.00000000    0.00000000
     atom    9 type  1   force =     0.00000000    0.00000000    0.00000000
     atom   10 type  1   force =     0.00000000    0.00000000    0.00000000
     atom   11 type  1   force =     0.00000000    0.00000000    0.00000000
     atom   12 type  1   force =     0.00000000    0.00000000    0.00000000
     atom   13 type  1   force =     0.00000000    0.00000000    0.00000000
     atom   14 type  1   force =     0.00000000    0.00000000    0.00000000
     atom   15 type  1   force =     0.00000000    0.00000000    0.00000000
     atom   16 type  1   force =     0.00000000    0.00000000    0.00000000
     atom   17 type  1   force =     0.00000000    0.00000000    0.00000000
     atom   18 type  1   force =     0.00000000    0.00000000    0.00000000
     atom   19 type  1   force =     0.00000000    0.00000000    0.00000000
     atom   20 type  1   force =     0.00000000    0.00000000    0.00000000
     atom   21 type  1   force =     0.00000000    0.00000000    0.00000000
     atom   22 type  1   force =     0.00000000    0.00000000    0.00000000
     atom   23 type  1   force =     0.00000000    0.00000000    0.00000000
     atom   24 type  1   force =     0.00000000    0.00000000    0.00000000
     atom   25 type  1   force =     0.00000000    0.00000000    0.00000000
     atom   26 type  1   force =     0.00000000    0.00000000    0.00000000
     atom   27 type  1   force =     0.00000000    0.00000000    0.00000000
     atom   28 type  1   force =     0.00000000    0.00000000    0.00000000
     atom   29 type  1   force =     0.00000000    0.00000000    0.00000000
     atom   30 type  1   force =     0.00000000    0.00000000    0.00000000
     atom   31 type  1   force =     0.00000000    0.00000000    0.00000000
     atom   32 type  1   force =     0.00000000    0.00000000    0.00000000
     The SCF correction term to forces
     atom    1 type  1   force =     0.00000373   -0.00000000   -0.00000555
     atom    2 type  1   force =     0.00000108   -0.00000000   -0.00000067
     atom    3 type  1   force =    -0.00000555   -0.00000000   -0.00000095
     atom    4 type  1   force =    -0.00000083    0.00000000    0.00000088
     atom    5 type  1   force =     0.00000507    0.00000000   -0.00000317
     atom    6 type  1   force =     0.00000106    0.00000000    0.00000029
     atom    7 type  1   force =    -0.00000080   -0.00000000    0.00000494
     atom    8 type  1   force =    -0.00000165    0.00000000    0.00000167
     atom    9 type  1   force =    -0.00000426   -0.00000000    0.00000229
     atom   10 type  1   force =     0.00000183   -0.00000000   -0.00000121
     atom   11 type  1   force =     0.00000621   -0.00000000   -0.00000400
     atom   12 type  1   force =    -0.00000211    0.00000000    0.00000545
     atom   13 type  1   force =    -0.00000640    0.00000000   -0.00000385
     atom   14 type  1   force =     0.00000404    0.00000000   -0.00000099
     atom   15 type  1   force =     0.00000214   -0.00000000   -0.00000573
     atom   16 type  1   force =    -0.00000165    0.00000000    0.00000167
     atom   17 type  1   force =    -0.00000426    0.00000000    0.00000229
     atom   18 type  1   force =     0.00000183    0.00000000   -0.00000121
     atom   19 type  1   force =     0.00000621   -0.00000000   -0.00000400
     atom   20 type  1   force =    -0.00000211   -0.00000000    0.00000545
     atom   21 type  1   force =    -0.00000640    0.00000000   -0.00000385
     atom   22 type  1   force =     0.00000404   -0.00000000   -0.00000099
     atom   23 type  1   force =     0.00000214   -0.00000000   -0.00000573
     atom   24 type  1   force =     0.00000507   -0.00000000   -0.00000317
     atom   25 type  1   force =     0.00000106   -0.00000000    0.00000029
     atom   26 type  1   force =    -0.00000080    0.00000000    0.00000494
     atom   27 type  1   force =    -0.00000355   -0.00000000   -0.00000215
     atom   28 type  1   force =     0.00000108    0.00000000   -0.00000067
     atom   29 type  1   force =     0.00000373    0.00000000   -0.00000555
     atom   30 type  1   force =    -0.00000083   -0.00000000    0.00000088
     atom   31 type  1   force =    -0.00000555    0.00000000   -0.00000095
     atom   32 type  1   force =    -0.00000355    0.00000000   -0.00000215

     Total force =     0.020553     Total SCF correction =     0.000028

     Writing all to output data dir ./temp/onlyAl_M0D004.save/

     General routines

     Parallel routines

   This run was terminated on:  22: 1: 3  20Mar2025

   JOB DONE.