     Program PWSCF v.7.2 starts on 20Mar2025 at 17:26:15

     Reading input from GaAs111_0D002Ha.scf.in

     Current dimensions of program PWSCF are:
     Max number of different atomic species (ntypx) = 10
     Max number of k-points (npk) =  40000
     Max angular momentum in pseudopotentials (lmaxx) =  4
     Found identity + (  0.5000 -0.5000  0.0000) symmetry
     This is a supercell, fractional translations are disabled

     K-points division:     npool     =       8
     R & G space division:  proc/nbgrp/npool/nimage =      18
     Subspace diagonalization in iterative solution of the eigenvalue problem:
     one sub-group per band group will be used

     Using Slab Decomposition

     bravais-lattice index     =            0
     lattice parameter (alat)  =      15.3672  a.u.
     unit-cell volume          =   15443.3545 (a.u.)^3
     number of atoms/cell      =           24
     number of atomic types    =            2
     number of electrons       =       336.00
     number of Kohn-Sham states=          202
     kinetic-energy cutoff     =      80.0000  Ry
     charge density cutoff     =     320.0000  Ry
     scf convergence threshold =      1.0E-09
     mixing beta               =       0.7000
     number of iterations used =            8  plain     mixing
     Exchange-correlation= PBE
                           (   1   4   3   4   0   0   0)

     celldm(1)=  15.367226  celldm(2)=   0.000000  celldm(3)=   0.000000
     celldm(4)=   0.000000  celldm(5)=   0.000000  celldm(6)=   0.000000

     crystal axes: (cart. coord. in units of alat)
               a(1) = (   1.000000   0.000000   0.000000 )
               a(2) = (  -0.500000   0.866025   0.000000 )
               a(3) = (   0.000000   0.000000   4.913881 )

     reciprocal axes: (cart. coord. in units 2 pi/alat)
               b(1) = (  1.000000  0.577350 -0.000000 )
               b(2) = (  0.000000  1.154701  0.000000 )
               b(3) = (  0.000000 -0.000000  0.203505 )

     PseudoPot. # 1 for Ga read from file:
     ./Ga.upf
     MD5 check sum: 93d095ea82f116b4e2622455073fb9ee
     Pseudo is Norm-conserving + core correction, Zval = 13.0
     Generated using ONCVPSP code by D. R. Hamann
     Using radial grid of 1902 points,  6 beta functions with:
                l(1) =   0
                l(2) =   0
                l(3) =   1
                l(4) =   1
                l(5) =   2
                l(6) =   2

     PseudoPot. # 2 for As read from file:
     ./As.upf
     MD5 check sum: 280d9fd8ba68a23ae96e751fcede625c
     Pseudo is Norm-conserving + core correction, Zval = 15.0
     Generated using ONCVPSP code by D. R. Hamann
     Using radial grid of 1350 points,  6 beta functions with:
                l(1) =   0
                l(2) =   0
                l(3) =   1
                l(4) =   1
                l(5) =   2
                l(6) =   2

     atomic species   valence    mass     pseudopotential
        Ga            13.00    69.72000     Ga( 1.00)
        As            15.00    74.92000     As( 1.00)

     No symmetry found

   Cartesian axes

     site n.     atom                  positions (alat units)
         1           Ga  tau(   1) = (   0.0000000   0.0000000   1.8955990  )
         2           Ga  tau(   2) = (   0.0000000   0.5773504   2.3038472  )
         3           Ga  tau(   3) = (   0.5000000   0.2886751   2.7120955  )
         4           Ga  tau(   4) = (   0.7500000   0.1443376   2.3038472  )
         5           Ga  tau(   5) = (  -0.2500001   0.7216878   2.7120955  )
         6           Ga  tau(   6) = (   0.2499999   0.4330127   1.8955990  )
         7           Ga  tau(   7) = (   0.4999999   0.5773504   2.3038472  )
         8           Ga  tau(   8) = (  -0.0000001   0.2886751   2.7120955  )
         9           Ga  tau(   9) = (   0.5000000   0.0000000   1.8955990  )
        10           Ga  tau(  10) = (   0.2500000   0.1443376   2.3038472  )
        11           Ga  tau(  11) = (   0.2500000   0.7216878   2.7120955  )
        12           Ga  tau(  12) = (  -0.2500000   0.4330127   1.8955990  )
        13           As  tau(  13) = (   0.7500000   0.1443376   2.6100335  )
        14           As  tau(  14) = (  -0.2500001   0.7216878   3.0182815  )
        15           As  tau(  15) = (   0.2499999   0.4330127   2.2017852  )
        16           As  tau(  16) = (   0.0000000   0.0000000   2.2017852  )
        17           As  tau(  17) = (   0.0000000   0.5773504   2.6100335  )
        18           As  tau(  18) = (   0.5000000   0.2886751   3.0182815  )
        19           As  tau(  19) = (   0.2500000   0.1443376   2.6100335  )
        20           As  tau(  20) = (   0.2500000   0.7216878   3.0182815  )
        21           As  tau(  21) = (  -0.2500000   0.4330127   2.2017852  )
        22           As  tau(  22) = (   0.4999999   0.5773504   2.6100335  )
        23           As  tau(  23) = (  -0.0000001   0.2886751   3.0182815  )
        24           As  tau(  24) = (   0.5000000   0.0000000   2.2017852  )

     number of k points=    50  Fermi-Dirac smearing, width (Ry)=  0.0000
                       cart. coord. in units 2pi/alat
        k(    1) = (   0.0500000   0.0866025   0.0000000), wk =   0.0400000
        k(    2) = (   0.0500000   0.2020726   0.0000000), wk =   0.0400000
        k(    3) = (   0.0500000   0.3175426   0.0000000), wk =   0.0400000
        k(    4) = (   0.0500000   0.4330127   0.0000000), wk =   0.0400000
        k(    5) = (   0.0500000   0.5484828   0.0000000), wk =   0.0400000
        k(    6) = (   0.0500000  -0.4907477   0.0000000), wk =   0.0400000
        k(    7) = (   0.0500000  -0.3752777   0.0000000), wk =   0.0400000
        k(    8) = (   0.0500000  -0.2598076   0.0000000), wk =   0.0400000
        k(    9) = (   0.0500000  -0.1443376   0.0000000), wk =   0.0400000
        k(   10) = (   0.0500000  -0.0288675   0.0000000), wk =   0.0400000
        k(   11) = (   0.1500000   0.1443376   0.0000000), wk =   0.0400000
        k(   12) = (   0.1500000   0.2598076   0.0000000), wk =   0.0400000
        k(   13) = (   0.1500000   0.3752777   0.0000000), wk =   0.0400000
        k(   14) = (   0.1500000   0.4907477   0.0000000), wk =   0.0400000
        k(   15) = (   0.1500000   0.6062178   0.0000000), wk =   0.0400000
        k(   16) = (   0.1500000  -0.4330127   0.0000000), wk =   0.0400000
        k(   17) = (   0.1500000  -0.3175426   0.0000000), wk =   0.0400000
        k(   18) = (   0.1500000  -0.2020726   0.0000000), wk =   0.0400000
        k(   19) = (   0.1500000  -0.0866025   0.0000000), wk =   0.0400000
        k(   20) = (   0.1500000   0.0288675   0.0000000), wk =   0.0400000
        k(   21) = (   0.2500000   0.2020726   0.0000000), wk =   0.0400000
        k(   22) = (   0.2500000   0.3175426   0.0000000), wk =   0.0400000
        k(   23) = (   0.2500000   0.4330127   0.0000000), wk =   0.0400000
        k(   24) = (   0.2500000   0.5484828   0.0000000), wk =   0.0400000
        k(   25) = (   0.2500000   0.6639528   0.0000000), wk =   0.0400000
        k(   26) = (   0.2500000  -0.3752777   0.0000000), wk =   0.0400000
        k(   27) = (   0.2500000  -0.2598076   0.0000000), wk =   0.0400000
        k(   28) = (   0.2500000  -0.1443376   0.0000000), wk =   0.0400000
        k(   29) = (   0.2500000  -0.0288675   0.0000000), wk =   0.0400000
        k(   30) = (   0.2500000   0.0866025   0.0000000), wk =   0.0400000
        k(   31) = (   0.3500000   0.2598076   0.0000000), wk =   0.0400000
        k(   32) = (   0.3500000   0.3752777   0.0000000), wk =   0.0400000
        k(   33) = (   0.3500000   0.4907477   0.0000000), wk =   0.0400000
        k(   34) = (   0.3500000   0.6062178   0.0000000), wk =   0.0400000
        k(   35) = (   0.3500000   0.7216878   0.0000000), wk =   0.0400000
        k(   36) = (   0.3500000  -0.3175426   0.0000000), wk =   0.0400000
        k(   37) = (   0.3500000  -0.2020726   0.0000000), wk =   0.0400000
        k(   38) = (   0.3500000  -0.0866025   0.0000000), wk =   0.0400000
        k(   39) = (   0.3500000   0.0288675   0.0000000), wk =   0.0400000
        k(   40) = (   0.3500000   0.1443376   0.0000000), wk =   0.0400000
        k(   41) = (   0.4500000   0.3175426   0.0000000), wk =   0.0400000
        k(   42) = (   0.4500000   0.4330127   0.0000000), wk =   0.0400000
        k(   43) = (   0.4500000   0.5484828   0.0000000), wk =   0.0400000
        k(   44) = (   0.4500000   0.6639528   0.0000000), wk =   0.0400000
        k(   45) = (   0.4500000   0.7794229   0.0000000), wk =   0.0400000
        k(   46) = (   0.4500000  -0.2598076   0.0000000), wk =   0.0400000
        k(   47) = (   0.4500000  -0.1443376   0.0000000), wk =   0.0400000
        k(   48) = (   0.4500000  -0.0288675   0.0000000), wk =   0.0400000
        k(   49) = (   0.4500000   0.0866025   0.0000000), wk =   0.0400000
        k(   50) = (   0.4500000   0.2020726   0.0000000), wk =   0.0400000

     Initial potential from superposition of free atoms

     starting charge     335.9650, renormalised to     336.0000

     negative rho (up, down):  1.366E-04 0.000E+00

     Adding external electric field

     Computed dipole along edir(3) :
        Dipole               -0.0747 Ry au,         -0.1897 Debye
        Dipole field         -0.0001 Ry au,

        E field amplitude [Ha a.u.]:  2.0000E-03
        Potential amp.        0.2490 Ry
        Total length         60.4102 bohr

     Starting wfcs are  216 atomic wfcs

     Self-consistent Calculation

     iteration #  1     ecut=    80.00 Ry     beta= 0.70
     Davidson diagonalization with overlap
     ethr =  1.00E-02,  avg # of iterations =  3.0

     Threshold (ethr) on eigenvalues was too large:
     Diagonalizing with lowered threshold

     Davidson diagonalization with overlap
     ethr =  3.72E-04,  avg # of iterations =  2.5

[...]

     total energy              =   -4145.88957209 Ry
     estimated scf accuracy    <       1.27001058 Ry

[...]

     iteration # 10     ecut=    80.00 Ry     beta= 0.70
     Davidson diagonalization with overlap
     c_bands:  1 eigenvalues not converged
     ethr =  3.48E-06,  avg # of iterations =  6.6

[...]

     iteration # 14     ecut=    80.00 Ry     beta= 0.70
     Davidson diagonalization with overlap
     c_bands:  1 eigenvalues not converged
     ethr =  4.87E-07,  avg # of iterations =  4.0

[...]

     negative rho (up, down):  1.861E-07 0.000E+00

[...]

     total energy              =   -4146.60043873 Ry
     estimated scf accuracy    <          1.4E-09 Ry

     iteration # 25     ecut=    80.00 Ry     beta= 0.70
     Davidson diagonalization with overlap
     ethr =  4.31E-13,  avg # of iterations =  2.0

     Adding external electric field

     Computed dipole along edir(3) :
        Dipole                0.1333 Ry au,          0.3389 Debye
        Dipole field          0.0001 Ry au,

        E field amplitude [Ha a.u.]:  2.0000E-03
        Potential amp.        0.2285 Ry
        Total length         60.4102 bohr

     End of self-consistent calculation

          k = 0.0500 0.0866 0.0000 (186449 PWs)   bands (ev):

[...]
   -15.9318 -15.9317 -15.9317 -15.9190 -15.9189 -15.9189 -15.9187 -15.9185
   -13.5813 -12.8770 -12.1819 -12.1819 -12.1317 -11.8449 -11.8449 -11.8262
   -11.5143 -11.1923 -11.1919 -11.1919  -8.0365  -7.8534  -7.8363  -7.8363
    -7.5003  -7.4486  -7.4486  -6.5473  -6.5473  -6.5286  -6.1897  -4.3862
    -4.3808  -4.3808  -4.1074  -3.8036  -3.7351  -3.7351  -3.4020  -3.2668
    -3.2668  -3.0495  -3.0414  -3.0414  -2.9616  -2.9616  -2.9234  -2.5782
    -2.4089  -2.2913  -2.2913  -2.2819  -2.1198  -2.0024  -1.8956  -1.7790
    -1.7307  -1.7307  -1.0122  -0.9569  -0.9569  -0.5059  -0.3931  -0.3292
    -0.1194   0.3553   0.3553   0.4659   0.6208   0.6208   0.7165   1.3451
     1.4718   1.4718   1.4783   1.6499   1.6683   1.6683   2.1802   2.3518
     2.3592   2.6817   2.7158   2.7158   2.7528   3.0459   3.1588   3.1805
     3.2876   3.3712

[...]

          k = 0.4500 0.2021 0.0000 (186681 PWs)   bands (ev):

   -37.2495 -37.2495 -37.2494 -37.2493 -37.2492 -37.2491 -37.2489 -37.2489
   -37.0593 -37.0593 -37.0592 -37.0592 -37.0574 -37.0574 -37.0574 -37.0573
   -36.9986 -36.9985 -36.9984 -36.9983 -36.7254 -36.7253 -36.7251 -36.7250
   -36.7138 -36.7137 -36.7136 -36.7136 -36.7135 -36.7135 -36.7134 -36.7134
   -36.6916 -36.6916 -36.6914 -36.6913 -36.6911 -36.6909 -36.6907 -36.6907
   -36.6078 -36.6078 -36.6076 -36.6075 -36.6073 -36.6071 -36.6069 -36.6069
   -36.5669 -36.5669 -36.5668 -36.5667 -36.5666 -36.5666 -36.5666 -36.5666
   -36.5632 -36.5630 -36.5628 -36.5628 -16.6651 -16.6647 -16.6624 -16.6614
   -16.6585 -16.6552 -16.6535 -16.6535 -16.5349 -16.5341 -16.5333 -16.5331
   -16.5246 -16.5243 -16.5221 -16.5209 -16.5208 -16.5199 -16.5194 -16.5186
   -16.3333 -16.3328 -16.3295 -16.3256 -16.2917 -16.2915 -16.2892 -16.2874
   -16.2717 -16.2671 -16.2633 -16.2629 -16.2306 -16.2302 -16.2302 -16.2279
   -16.2225 -16.2222 -16.2218 -16.2212 -16.0501 -16.0485 -16.0396 -16.0296
   -15.9835 -15.9808 -15.9776 -15.9753 -15.9745 -15.9727 -15.9670 -15.9666
   -15.9293 -15.9292 -15.9273 -15.9242 -15.9223 -15.9213 -15.9192 -15.9190
   -13.1905 -12.8868 -12.5380 -12.2985 -12.2894 -12.1118 -11.8733 -11.7791
   -11.3621 -11.2719 -11.1789 -11.1768  -7.7354  -7.7309  -7.6500  -7.5730
    -7.2682  -7.0778  -6.6545  -6.5454  -6.5061  -6.3419  -5.9457  -5.1449
    -4.7317  -4.5196  -4.4976  -4.4343  -4.2793  -4.1836  -4.1456  -4.0736
    -3.3406  -3.0843  -3.0768  -3.0218  -2.7714  -2.7454  -2.7008  -2.5908
    -2.5685  -2.4969  -2.4607  -2.4450  -2.4052  -2.2356  -2.0243  -1.7490
    -1.5880  -1.5469  -1.2528  -1.1061  -0.7502  -0.6114  -0.4879  -0.0900
     0.2209   0.2376   0.6331   0.8964   0.9080   1.0399   1.8208   1.8246
     1.8309   1.9133   2.0540   2.0716   2.0901   2.0916   2.3546   2.4613
     2.5001   2.5713   2.7751   2.8992   3.0099   3.2122   3.2578   3.3946
     3.4465   3.4520

     the Fermi energy is    -1.6994 ev

!    total energy              =   -4146.60043873 Ry
     estimated scf accuracy    <          9.7E-11 Ry
     smearing contrib. (-TS)   =      -0.00000035 Ry
     internal energy E=F+TS    =   -4146.60043838 Ry

     The total energy is F=E-TS. E is the sum of the following terms:
     one-electron contribution =  -50027.65577014 Ry
     hartree contribution      =   25089.59685795 Ry
     xc contribution           =    -964.54435369 Ry
     ewald contribution        =   21756.00334631 Ry
     electric field correction =      -0.00051880 Ry

     convergence has been achieved in  25 iterations

     Forces acting on atoms (cartesian axes, Ry/au):

     atom    1 type  1   force =     0.00005746   -0.00003317   -0.01370624
     atom    2 type  1   force =    -0.00003460    0.00001970    0.00662765
     atom    3 type  1   force =    -0.00004419    0.00002557    0.02212334
     atom    4 type  1   force =    -0.00003459    0.00002007    0.00662771
     atom    5 type  1   force =    -0.00004417    0.00002560    0.02212073
     atom    6 type  1   force =     0.00005748   -0.00003318   -0.01370627
     atom    7 type  1   force =    -0.00003394    0.00001920    0.00662780
     atom    8 type  1   force =    -0.00004376    0.00002558    0.02212137
     atom    9 type  1   force =     0.00005744   -0.00003318   -0.01370639
     atom   10 type  1   force =    -0.00003388    0.00001999    0.00662783
     atom   11 type  1   force =    -0.00004451    0.00002566    0.02212209
     atom   12 type  1   force =     0.00005745   -0.00003318   -0.01370634
     atom   13 type  2   force =     0.00008098   -0.00004713   -0.00879005
     atom   14 type  2   force =    -0.00001155    0.00000657   -0.01407113
     atom   15 type  2   force =    -0.00004951    0.00002862    0.00781791
     atom   16 type  2   force =    -0.00004978    0.00002878    0.00781794
     atom   17 type  2   force =     0.00008199   -0.00004739   -0.00879055
     atom   18 type  2   force =    -0.00001120    0.00000657   -0.01407247
     atom   19 type  2   force =     0.00008258   -0.00004686   -0.00878983
     atom   20 type  2   force =    -0.00001036    0.00000624   -0.01407126
     atom   21 type  2   force =    -0.00005049    0.00002915    0.00781847
     atom   22 type  2   force =     0.00008216   -0.00004850   -0.00878987
     atom   23 type  2   force =    -0.00001076    0.00000603   -0.01407073
     atom   24 type  2   force =    -0.00005026    0.00002927    0.00781828
     The non-local contrib.  to forces
     atom    1 type  1   force =    -0.00035369    0.00020422    0.35423526
     atom    2 type  1   force =     0.00010262   -0.00005937   -0.08673732
     atom    3 type  1   force =     0.00001462   -0.00000828   -0.10683261
     atom    4 type  1   force =     0.00010246   -0.00005919   -0.08673728
     atom    5 type  1   force =     0.00001428   -0.00000835   -0.10683488
     atom    6 type  1   force =    -0.00035370    0.00020420    0.35423525
     atom    7 type  1   force =     0.00010280   -0.00005973   -0.08673682
     atom    8 type  1   force =     0.00001482   -0.00000848   -0.10683455
     atom    9 type  1   force =    -0.00035380    0.00020422    0.35423591
     atom   10 type  1   force =     0.00010297   -0.00005899   -0.08673721
     atom   11 type  1   force =     0.00001448   -0.00000836   -0.10683404
     atom   12 type  1   force =    -0.00035376    0.00020426    0.35423583
     atom   13 type  2   force =    -0.00027092    0.00015681   -0.05004281
     atom   14 type  2   force =    -0.00003190    0.00001809   -0.45946337
     atom   15 type  2   force =    -0.00003394    0.00001982    0.10604368
     atom   16 type  2   force =    -0.00003420    0.00001948    0.10604398
     atom   17 type  2   force =    -0.00027052    0.00015650   -0.05004356
     atom   18 type  2   force =    -0.00003123    0.00001833   -0.45946409
     atom   19 type  2   force =    -0.00027202    0.00015733   -0.05004351
     atom   20 type  2   force =    -0.00003068    0.00001813   -0.45946379
     atom   21 type  2   force =    -0.00003394    0.00001942    0.10604287
     atom   22 type  2   force =    -0.00027263    0.00015731   -0.05004301
     atom   23 type  2   force =    -0.00003145    0.00001777   -0.45946329
     atom   24 type  2   force =    -0.00003405    0.00001943    0.10604309
     The ionic contribution  to forces
     atom    1 type  1   force =     0.00000062   -0.00000103 -167.56823365
     atom    2 type  1   force =    -0.00001377   -0.00001957  -53.88644650
     atom    3 type  1   force =    -0.00001024    0.00001227   80.02791724
     atom    4 type  1   force =    -0.00000297    0.00001769  -53.88645316
     atom    5 type  1   force =     0.00000702   -0.00000737   80.02792777
     atom    6 type  1   force =     0.00000475   -0.00000180 -167.56823119
     atom    7 type  1   force =     0.00002264   -0.00003124  -53.88645601
     atom    8 type  1   force =     0.00001650    0.00002370   80.02792137
     atom    9 type  1   force =    -0.00000123    0.00000357 -167.56823276
     atom   10 type  1   force =     0.00001018    0.00000841  -53.88644934
     atom   11 type  1   force =    -0.00002147    0.00000292   80.02794471
     atom   12 type  1   force =    -0.00000448   -0.00000021 -167.56822758
     atom   13 type  2   force =    -0.00001144    0.00000988   53.88643765
     atom   14 type  2   force =     0.00000929    0.00000439  188.12656113
     atom   15 type  2   force =     0.00000361   -0.00001556 -100.58625196
     atom   16 type  2   force =     0.00000416    0.00001198 -100.58626457
     atom   17 type  2   force =    -0.00000886   -0.00002094   53.88645403
     atom   18 type  2   force =    -0.00001214   -0.00000315  188.12655812
     atom   19 type  2   force =     0.00000615    0.00001817   53.88645570
     atom   20 type  2   force =    -0.00001042   -0.00000688  188.12656606
     atom   21 type  2   force =    -0.00001530    0.00000675 -100.58623605
     atom   22 type  2   force =     0.00002291   -0.00003952   53.88643932
     atom   23 type  2   force =     0.00001303    0.00000656  188.12655919
     atom   24 type  2   force =    -0.00000852    0.00002098 -100.58625955
     The local contribution  to forces
     atom    1 type  1   force =     0.00042702   -0.00024593  167.15164506
     atom    2 type  1   force =    -0.00012887    0.00010060   53.93307655
     atom    3 type  1   force =    -0.00005673    0.00002702  -79.94235611
     atom    4 type  1   force =    -0.00013841    0.00006469   53.93308312
     atom    5 type  1   force =    -0.00007455    0.00004581  -79.94236327
     atom    6 type  1   force =     0.00042195   -0.00024526  167.15164299
     atom    7 type  1   force =    -0.00016947    0.00011623   53.93308889
     atom    8 type  1   force =    -0.00008183    0.00001390  -79.94236212
     atom    9 type  1   force =     0.00042665   -0.00025032  167.15164892
     atom   10 type  1   force =    -0.00015827    0.00007612   53.93308208
     atom   11 type  1   force =    -0.00004283    0.00003474  -79.94238425
     atom   12 type  1   force =     0.00043079   -0.00024570  167.15164380
     atom   13 type  2   force =     0.00038180   -0.00022320  -53.90294475
     atom   14 type  2   force =     0.00001109   -0.00001596 -187.74645738
     atom   15 type  2   force =    -0.00002698    0.00002852  100.42964172
     atom   16 type  2   force =    -0.00002625    0.00000191  100.42965516
     atom   17 type  2   force =     0.00037512   -0.00019269  -53.90296054
     atom   18 type  2   force =     0.00003236   -0.00000852 -187.74645066
     atom   19 type  2   force =     0.00034811   -0.00022633  -53.90296220
     atom   20 type  2   force =     0.00002914   -0.00000412 -187.74646386
     atom   21 type  2   force =    -0.00000069    0.00000373  100.42961758
     atom   22 type  2   force =     0.00033579   -0.00016468  -53.90294575
     atom   23 type  2   force =     0.00000605   -0.00001732 -187.74645823
     atom   24 type  2   force =    -0.00000847   -0.00001147  100.42963955
     The core correction contribution to forces
     atom    1 type  1   force =    -0.00001549    0.00000894   -0.00054038
     atom    2 type  1   force =     0.00000748   -0.00000434   -0.00241985
     atom    3 type  1   force =     0.00000727   -0.00000418   -0.00578680
     atom    4 type  1   force =     0.00000749   -0.00000432   -0.00241986
     atom    5 type  1   force =     0.00000726   -0.00000424   -0.00578669
     atom    6 type  1   force =    -0.00001553    0.00000894   -0.00054038
     atom    7 type  1   force =     0.00000724   -0.00000417   -0.00241975
     atom    8 type  1   force =     0.00000725   -0.00000418   -0.00578682
     atom    9 type  1   force =    -0.00001562    0.00000897   -0.00054015
     atom   10 type  1   force =     0.00000722   -0.00000420   -0.00241978
     atom   11 type  1   force =     0.00000730   -0.00000421   -0.00578686
     atom   12 type  1   force =    -0.00001558    0.00000900   -0.00054017
     atom   13 type  2   force =    -0.00000918    0.00000532    0.00101113
     atom   14 type  2   force =     0.00000085   -0.00000048    0.00855079
     atom   15 type  2   force =     0.00000380   -0.00000221    0.00167219
     atom   16 type  2   force =     0.00000383   -0.00000219    0.00167220
     atom   17 type  2   force =    -0.00000924    0.00000530    0.00101112
     atom   18 type  2   force =     0.00000083   -0.00000048    0.00855092
     atom   19 type  2   force =    -0.00000949    0.00000543    0.00101110
     atom   20 type  2   force =     0.00000072   -0.00000044    0.00855080
     atom   21 type  2   force =     0.00000394   -0.00000226    0.00167201
     atom   22 type  2   force =    -0.00000945    0.00000551    0.00101110
     atom   23 type  2   force =     0.00000074   -0.00000041    0.00855072
     atom   24 type  2   force =     0.00000392   -0.00000227    0.00167199
     The Hubbard contrib.    to forces
     atom    1 type  1   force =     0.00000000    0.00000000    0.00000000
     atom    2 type  1   force =     0.00000000    0.00000000    0.00000000
     atom    3 type  1   force =     0.00000000    0.00000000    0.00000000
     atom    4 type  1   force =     0.00000000    0.00000000    0.00000000
     atom    5 type  1   force =     0.00000000    0.00000000    0.00000000
     atom    6 type  1   force =     0.00000000    0.00000000    0.00000000
     atom    7 type  1   force =     0.00000000    0.00000000    0.00000000
     atom    8 type  1   force =     0.00000000    0.00000000    0.00000000
     atom    9 type  1   force =     0.00000000    0.00000000    0.00000000
     atom   10 type  1   force =     0.00000000    0.00000000    0.00000000
     atom   11 type  1   force =     0.00000000    0.00000000    0.00000000
     atom   12 type  1   force =     0.00000000    0.00000000    0.00000000
     atom   13 type  2   force =     0.00000000    0.00000000    0.00000000
     atom   14 type  2   force =     0.00000000    0.00000000    0.00000000
     atom   15 type  2   force =     0.00000000    0.00000000    0.00000000
     atom   16 type  2   force =     0.00000000    0.00000000    0.00000000
     atom   17 type  2   force =     0.00000000    0.00000000    0.00000000
     atom   18 type  2   force =     0.00000000    0.00000000    0.00000000
     atom   19 type  2   force =     0.00000000    0.00000000    0.00000000
     atom   20 type  2   force =     0.00000000    0.00000000    0.00000000
     atom   21 type  2   force =     0.00000000    0.00000000    0.00000000
     atom   22 type  2   force =     0.00000000    0.00000000    0.00000000
     atom   23 type  2   force =     0.00000000    0.00000000    0.00000000
     atom   24 type  2   force =     0.00000000    0.00000000    0.00000000
     The SCF correction term to forces
     atom    1 type  1   force =    -0.00000099    0.00000063    0.00000890
     atom    2 type  1   force =    -0.00000206    0.00000237   -0.00002380
     atom    3 type  1   force =     0.00000089   -0.00000126    0.00000305
     atom    4 type  1   force =    -0.00000316    0.00000121   -0.00002368
     atom    5 type  1   force =     0.00000181   -0.00000025   -0.00000078
     atom    6 type  1   force =     0.00000001    0.00000076    0.00000849
     atom    7 type  1   force =     0.00000284   -0.00000189   -0.00002708
     atom    8 type  1   force =    -0.00000050    0.00000065    0.00000492
     atom    9 type  1   force =     0.00000144    0.00000037    0.00000312
     atom   10 type  1   force =     0.00000402   -0.00000134   -0.00002649
     atom   11 type  1   force =    -0.00000199    0.00000058    0.00000395
     atom   12 type  1   force =     0.00000048   -0.00000052    0.00000321
     atom   13 type  2   force =    -0.00000928    0.00000406    0.00000407
     atom   14 type  2   force =    -0.00000088    0.00000054   -0.00000695
     atom   15 type  2   force =     0.00000399   -0.00000195   -0.00003237
     atom   16 type  2   force =     0.00000268   -0.00000240   -0.00003349
     atom   17 type  2   force =    -0.00000451    0.00000445    0.00000376
     atom   18 type  2   force =    -0.00000103    0.00000039   -0.00001141
     atom   19 type  2   force =     0.00000983   -0.00000147    0.00000443
     atom   20 type  2   force =     0.00000088   -0.00000044   -0.00000513
     atom   21 type  2   force =    -0.00000450    0.00000151   -0.00002260
     atom   22 type  2   force =     0.00000554   -0.00000712    0.00000382
     atom   23 type  2   force =     0.00000086   -0.00000057   -0.00000376
     atom   24 type  2   force =    -0.00000314    0.00000260   -0.00002145

     Total force =     0.065041     Total SCF correction =     0.000082

     Writing all to output data dir ./temp/GaAs_111_0D002Ha.save/

     General routines

     Parallel routines

   This run was terminated on:  17:41: 3  20Mar2025

   JOB DONE.