     Program PWSCF v.7.2 starts on 20Mar2025 at 19:57:19

     Reading input from GaAs111_M0D003Ha.scf.in

     Current dimensions of program PWSCF are:
     Max number of different atomic species (ntypx) = 10
     Max number of k-points (npk) =  40000
     Max angular momentum in pseudopotentials (lmaxx) =  4
     Found identity + (  0.5000 -0.5000  0.0000) symmetry
     This is a supercell, fractional translations are disabled

     K-points division:     npool     =       8
     R & G space division:  proc/nbgrp/npool/nimage =      18
     Subspace diagonalization in iterative solution of the eigenvalue problem:
     one sub-group per band group will be used

     Using Slab Decomposition

     bravais-lattice index     =            0
     lattice parameter (alat)  =      15.3672  a.u.
     unit-cell volume          =   15443.3545 (a.u.)^3
     number of atoms/cell      =           24
     number of atomic types    =            2
     number of electrons       =       336.00
     number of Kohn-Sham states=          202
     kinetic-energy cutoff     =      80.0000  Ry
     charge density cutoff     =     320.0000  Ry
     scf convergence threshold =      1.0E-09
     mixing beta               =       0.7000
     number of iterations used =            8  plain     mixing
     Exchange-correlation= PBE
                           (   1   4   3   4   0   0   0)

     celldm(1)=  15.367226  celldm(2)=   0.000000  celldm(3)=   0.000000
     celldm(4)=   0.000000  celldm(5)=   0.000000  celldm(6)=   0.000000

     crystal axes: (cart. coord. in units of alat)
               a(1) = (   1.000000   0.000000   0.000000 )
               a(2) = (  -0.500000   0.866025   0.000000 )
               a(3) = (   0.000000   0.000000   4.913881 )

     reciprocal axes: (cart. coord. in units 2 pi/alat)
               b(1) = (  1.000000  0.577350 -0.000000 )
               b(2) = (  0.000000  1.154701  0.000000 )
               b(3) = (  0.000000 -0.000000  0.203505 )

     PseudoPot. # 1 for Ga read from file:
     ./Ga.upf
     MD5 check sum: 93d095ea82f116b4e2622455073fb9ee
     Pseudo is Norm-conserving + core correction, Zval = 13.0
     Generated using ONCVPSP code by D. R. Hamann
     Using radial grid of 1902 points,  6 beta functions with:
                l(1) =   0
                l(2) =   0
                l(3) =   1
                l(4) =   1
                l(5) =   2
                l(6) =   2

     PseudoPot. # 2 for As read from file:
     ./As.upf
     MD5 check sum: 280d9fd8ba68a23ae96e751fcede625c
     Pseudo is Norm-conserving + core correction, Zval = 15.0
     Generated using ONCVPSP code by D. R. Hamann
     Using radial grid of 1350 points,  6 beta functions with:
                l(1) =   0
                l(2) =   0
                l(3) =   1
                l(4) =   1
                l(5) =   2
                l(6) =   2

     atomic species   valence    mass     pseudopotential
        Ga            13.00    69.72000     Ga( 1.00)
        As            15.00    74.92000     As( 1.00)

     No symmetry found

   Cartesian axes

     site n.     atom                  positions (alat units)
         1           Ga  tau(   1) = (   0.0000000   0.0000000   1.8955990  )
         2           Ga  tau(   2) = (   0.0000000   0.5773504   2.3038472  )
         3           Ga  tau(   3) = (   0.5000000   0.2886751   2.7120955  )
         4           Ga  tau(   4) = (   0.7500000   0.1443376   2.3038472  )
         5           Ga  tau(   5) = (  -0.2500001   0.7216878   2.7120955  )
         6           Ga  tau(   6) = (   0.2499999   0.4330127   1.8955990  )
         7           Ga  tau(   7) = (   0.4999999   0.5773504   2.3038472  )
         8           Ga  tau(   8) = (  -0.0000001   0.2886751   2.7120955  )
         9           Ga  tau(   9) = (   0.5000000   0.0000000   1.8955990  )
        10           Ga  tau(  10) = (   0.2500000   0.1443376   2.3038472  )
        11           Ga  tau(  11) = (   0.2500000   0.7216878   2.7120955  )
        12           Ga  tau(  12) = (  -0.2500000   0.4330127   1.8955990  )
        13           As  tau(  13) = (   0.7500000   0.1443376   2.6100335  )
        14           As  tau(  14) = (  -0.2500001   0.7216878   3.0182815  )
        15           As  tau(  15) = (   0.2499999   0.4330127   2.2017852  )
        16           As  tau(  16) = (   0.0000000   0.0000000   2.2017852  )
        17           As  tau(  17) = (   0.0000000   0.5773504   2.6100335  )
        18           As  tau(  18) = (   0.5000000   0.2886751   3.0182815  )
        19           As  tau(  19) = (   0.2500000   0.1443376   2.6100335  )
        20           As  tau(  20) = (   0.2500000   0.7216878   3.0182815  )
        21           As  tau(  21) = (  -0.2500000   0.4330127   2.2017852  )
        22           As  tau(  22) = (   0.4999999   0.5773504   2.6100335  )
        23           As  tau(  23) = (  -0.0000001   0.2886751   3.0182815  )
        24           As  tau(  24) = (   0.5000000   0.0000000   2.2017852  )

     number of k points=    50  Fermi-Dirac smearing, width (Ry)=  0.0000
                       cart. coord. in units 2pi/alat
        k(    1) = (   0.0500000   0.0866025   0.0000000), wk =   0.0400000
        k(    2) = (   0.0500000   0.2020726   0.0000000), wk =   0.0400000
        k(    3) = (   0.0500000   0.3175426   0.0000000), wk =   0.0400000
        k(    4) = (   0.0500000   0.4330127   0.0000000), wk =   0.0400000
        k(    5) = (   0.0500000   0.5484828   0.0000000), wk =   0.0400000
        k(    6) = (   0.0500000  -0.4907477   0.0000000), wk =   0.0400000
        k(    7) = (   0.0500000  -0.3752777   0.0000000), wk =   0.0400000
        k(    8) = (   0.0500000  -0.2598076   0.0000000), wk =   0.0400000
        k(    9) = (   0.0500000  -0.1443376   0.0000000), wk =   0.0400000
        k(   10) = (   0.0500000  -0.0288675   0.0000000), wk =   0.0400000
        k(   11) = (   0.1500000   0.1443376   0.0000000), wk =   0.0400000
        k(   12) = (   0.1500000   0.2598076   0.0000000), wk =   0.0400000
        k(   13) = (   0.1500000   0.3752777   0.0000000), wk =   0.0400000
        k(   14) = (   0.1500000   0.4907477   0.0000000), wk =   0.0400000
        k(   15) = (   0.1500000   0.6062178   0.0000000), wk =   0.0400000
        k(   16) = (   0.1500000  -0.4330127   0.0000000), wk =   0.0400000
        k(   17) = (   0.1500000  -0.3175426   0.0000000), wk =   0.0400000
        k(   18) = (   0.1500000  -0.2020726   0.0000000), wk =   0.0400000
        k(   19) = (   0.1500000  -0.0866025   0.0000000), wk =   0.0400000
        k(   20) = (   0.1500000   0.0288675   0.0000000), wk =   0.0400000
        k(   21) = (   0.2500000   0.2020726   0.0000000), wk =   0.0400000
        k(   22) = (   0.2500000   0.3175426   0.0000000), wk =   0.0400000
        k(   23) = (   0.2500000   0.4330127   0.0000000), wk =   0.0400000
        k(   24) = (   0.2500000   0.5484828   0.0000000), wk =   0.0400000
        k(   25) = (   0.2500000   0.6639528   0.0000000), wk =   0.0400000
        k(   26) = (   0.2500000  -0.3752777   0.0000000), wk =   0.0400000
        k(   27) = (   0.2500000  -0.2598076   0.0000000), wk =   0.0400000
        k(   28) = (   0.2500000  -0.1443376   0.0000000), wk =   0.0400000
        k(   29) = (   0.2500000  -0.0288675   0.0000000), wk =   0.0400000
        k(   30) = (   0.2500000   0.0866025   0.0000000), wk =   0.0400000
        k(   31) = (   0.3500000   0.2598076   0.0000000), wk =   0.0400000
        k(   32) = (   0.3500000   0.3752777   0.0000000), wk =   0.0400000
        k(   33) = (   0.3500000   0.4907477   0.0000000), wk =   0.0400000
        k(   34) = (   0.3500000   0.6062178   0.0000000), wk =   0.0400000
        k(   35) = (   0.3500000   0.7216878   0.0000000), wk =   0.0400000
        k(   36) = (   0.3500000  -0.3175426   0.0000000), wk =   0.0400000
        k(   37) = (   0.3500000  -0.2020726   0.0000000), wk =   0.0400000
        k(   38) = (   0.3500000  -0.0866025   0.0000000), wk =   0.0400000
        k(   39) = (   0.3500000   0.0288675   0.0000000), wk =   0.0400000
        k(   40) = (   0.3500000   0.1443376   0.0000000), wk =   0.0400000
        k(   41) = (   0.4500000   0.3175426   0.0000000), wk =   0.0400000
        k(   42) = (   0.4500000   0.4330127   0.0000000), wk =   0.0400000
        k(   43) = (   0.4500000   0.5484828   0.0000000), wk =   0.0400000
        k(   44) = (   0.4500000   0.6639528   0.0000000), wk =   0.0400000
        k(   45) = (   0.4500000   0.7794229   0.0000000), wk =   0.0400000
        k(   46) = (   0.4500000  -0.2598076   0.0000000), wk =   0.0400000
        k(   47) = (   0.4500000  -0.1443376   0.0000000), wk =   0.0400000
        k(   48) = (   0.4500000  -0.0288675   0.0000000), wk =   0.0400000
        k(   49) = (   0.4500000   0.0866025   0.0000000), wk =   0.0400000
        k(   50) = (   0.4500000   0.2020726   0.0000000), wk =   0.0400000

     Initial potential from superposition of free atoms

     starting charge     335.9650, renormalised to     336.0000

     negative rho (up, down):  1.366E-04 0.000E+00

     Adding external electric field

     Computed dipole along edir(3) :
        Dipole               -0.0747 Ry au,         -0.1897 Debye
        Dipole field         -0.0001 Ry au,

        E field amplitude [Ha a.u.]: -3.0000E-03
        Potential amp.       -0.3551 Ry
        Total length         60.4102 bohr

     Starting wfcs are  216 atomic wfcs

     Self-consistent Calculation

     iteration #  1     ecut=    80.00 Ry     beta= 0.70
     Davidson diagonalization with overlap
     ethr =  1.00E-02,  avg # of iterations =  3.0

[...]

     total energy              =   -4140.49763548 Ry
     estimated scf accuracy    <       7.36024019 Ry

     iteration #  2     ecut=    80.00 Ry     beta= 0.70
     Davidson diagonalization with overlap
     c_bands:  1 eigenvalues not converged
     c_bands:  1 eigenvalues not converged
     ethr =  2.19E-03,  avg # of iterations = 19.9

[...]

     iteration # 16     ecut=    80.00 Ry     beta= 0.70
     Davidson diagonalization with overlap
     c_bands:  1 eigenvalues not converged
     ethr =  1.09E-06,  avg # of iterations =  6.2

[...]

     negative rho (up, down):  8.349E-06 0.000E+00

[...]

     total energy              =   -4146.60803192 Ry
     estimated scf accuracy    <          2.8E-09 Ry

     iteration # 35     ecut=    80.00 Ry     beta= 0.70
     Davidson diagonalization with overlap
     ethr =  8.28E-13,  avg # of iterations =  1.0

     Adding external electric field

     Computed dipole along edir(3) :
        Dipole               -1.6571 Ry au,         -4.2120 Debye
        Dipole field         -0.0013 Ry au,

        E field amplitude [Ha a.u.]: -3.0000E-03
        Potential amp.       -0.1995 Ry
        Total length         60.4102 bohr

     End of self-consistent calculation

          k = 0.0500 0.0866 0.0000 (186449 PWs)   bands (ev):

   -37.2250 -37.2250 -37.2250 -37.2250 -37.2250 -37.2243 -37.2243 -37.2243
   -37.0377 -37.0376 -37.0376 -37.0375 -37.0354 -37.0354 -37.0352 -37.0352
   -36.9778 -36.9774 -36.9774 -36.9774 -36.7159 -36.7153 -36.7153 -36.7153
[...]
   -15.9270 -15.9269 -15.9269 -15.9142 -15.9141 -15.9141 -15.9140 -15.9139
   -13.5658 -12.8617 -12.1660 -12.1660 -12.1157 -11.8293 -11.8293 -11.8107
   -11.5043 -11.1807 -11.1804 -11.1804  -8.0113  -7.8356  -7.8189  -7.8189
    -7.4922  -7.4401  -7.4401  -6.5212  -6.5212  -6.5025  -6.1731  -4.3734
    -4.3679  -4.3679  -4.0891  -3.7881  -3.7195  -3.7195  -3.3883  -3.2543
    -3.2543  -3.0470  -3.0350  -3.0350  -2.9506  -2.9506  -2.9107  -2.5617
    -2.3930  -2.2650  -2.2650  -2.2553  -2.0961  -1.9953  -1.8813  -1.7447
    -1.6968  -1.6968  -1.0040  -0.9489  -0.9489  -0.4942  -0.3833  -0.3112
    -0.1121   0.3756   0.3756   0.4862   0.6297   0.6297   0.7253   1.3760
     1.5032   1.5032   1.6563   1.6706   1.6890   1.6890   2.1945   2.3778
     2.6583   2.7417   2.7417   2.7781   2.8950   3.1107   3.1958   3.3047
     3.3879   3.4189

[...]

          k = 0.4500 0.2021 0.0000 (186681 PWs)   bands (ev):

   -37.2250 -37.2250 -37.2249 -37.2248 -37.2247 -37.2246 -37.2244 -37.2244
   -37.0377 -37.0377 -37.0376 -37.0375 -37.0353 -37.0353 -37.0353 -37.0352
   -36.9777 -36.9776 -36.9774 -36.9774 -36.7157 -36.7155 -36.7153 -36.7153
   -36.7042 -36.7041 -36.7040 -36.7040 -36.7039 -36.7038 -36.7038 -36.7038
   -36.6824 -36.6824 -36.6822 -36.6821 -36.6820 -36.6817 -36.6816 -36.6816
   -36.5835 -36.5835 -36.5833 -36.5832 -36.5830 -36.5828 -36.5826 -36.5826
   -36.5413 -36.5412 -36.5411 -36.5411 -36.5410 -36.5410 -36.5410 -36.5409
   -36.5371 -36.5370 -36.5368 -36.5367 -16.6423 -16.6419 -16.6397 -16.6387
   -16.6358 -16.6325 -16.6308 -16.6307 -16.5102 -16.5095 -16.5087 -16.5086
   -16.4997 -16.4997 -16.4978 -16.4968 -16.4963 -16.4960 -16.4949 -16.4944
   -16.3154 -16.3150 -16.3120 -16.3084 -16.2753 -16.2749 -16.2722 -16.2702
   -16.2541 -16.2496 -16.2459 -16.2455 -16.2132 -16.2129 -16.2129 -16.2106
   -16.2052 -16.2048 -16.2044 -16.2039 -16.0445 -16.0430 -16.0342 -16.0245
   -15.9784 -15.9761 -15.9726 -15.9705 -15.9697 -15.9679 -15.9622 -15.9618
   -15.9246 -15.9245 -15.9226 -15.9195 -15.9175 -15.9166 -15.9145 -15.9143
   -13.1750 -12.8713 -12.5227 -12.2828 -12.2739 -12.0958 -11.8577 -11.7635
   -11.3516 -11.2611 -11.1675 -11.1652  -7.7143  -7.7118  -7.6337  -7.5520
    -7.2594  -7.0678  -6.6370  -6.5195  -6.4798  -6.3252  -5.9302  -5.1300
    -4.7148  -4.5071  -4.4813  -4.4190  -4.2661  -4.1674  -4.1321  -4.0603
    -3.3250  -3.0667  -3.0581  -3.0055  -2.7733  -2.7466  -2.6868  -2.5727
    -2.5629  -2.4896  -2.4314  -2.4273  -2.3838  -2.2258  -2.0088  -1.7396
    -1.5766  -1.5376  -1.2182  -1.0726  -0.7416  -0.6023  -0.4580  -0.0553
     0.2433   0.2707   0.6565   0.9063   0.9416   1.0499   1.8424   1.8616
     1.9261   1.9423   2.0745   2.0906   2.1245   2.1729   2.3871   2.4989
     2.5733   2.6160   2.8244   3.0416   3.2694   3.2709   3.4211   3.4971
     3.5903   3.7093

     the Fermi energy is    -1.6736 ev

!    total energy              =   -4146.60803192 Ry
     estimated scf accuracy    <          5.4E-10 Ry
     smearing contrib. (-TS)   =      -0.00000057 Ry
     internal energy E=F+TS    =   -4146.60803135 Ry

     The total energy is F=E-TS. E is the sum of the following terms:
     one-electron contribution =  -50028.46322810 Ry
     hartree contribution      =   25090.41573844 Ry
     xc contribution           =    -964.55617978 Ry
     ewald contribution        =   21756.00334631 Ry
     electric field correction =      -0.00770822 Ry

     convergence has been achieved in  35 iterations

     Forces acting on atoms (cartesian axes, Ry/au):

     atom    1 type  1   force =    -0.00000041    0.00000019   -0.01517158
     atom    2 type  1   force =    -0.00002787    0.00001578    0.00651608
     atom    3 type  1   force =    -0.00003861    0.00002253    0.02198638
     atom    4 type  1   force =    -0.00002773    0.00001610    0.00651606
     atom    5 type  1   force =    -0.00003862    0.00002222    0.02198638
     atom    6 type  1   force =    -0.00000035    0.00000026   -0.01517157
     atom    7 type  1   force =    -0.00002762    0.00001580    0.00651597
     atom    8 type  1   force =    -0.00003834    0.00002241    0.02198630
     atom    9 type  1   force =    -0.00000032    0.00000022   -0.01517162
     atom   10 type  1   force =    -0.00002785    0.00001614    0.00651601
     atom   11 type  1   force =    -0.00003866    0.00002238    0.02198635
     atom   12 type  1   force =    -0.00000037    0.00000022   -0.01517152
     atom   13 type  2   force =     0.00005678   -0.00003292   -0.00838665
     atom   14 type  2   force =     0.00000717   -0.00000421   -0.01422428
     atom   15 type  2   force =     0.00000266   -0.00000145    0.00928004
     atom   16 type  2   force =     0.00000250   -0.00000143    0.00928001
     atom   17 type  2   force =     0.00005676   -0.00003309   -0.00838656
     atom   18 type  2   force =     0.00000739   -0.00000415   -0.01422428
     atom   19 type  2   force =     0.00005680   -0.00003265   -0.00838648
     atom   20 type  2   force =     0.00000740   -0.00000417   -0.01422416
     atom   21 type  2   force =     0.00000240   -0.00000131    0.00928035
     atom   22 type  2   force =     0.00005712   -0.00003325   -0.00838649
     atom   23 type  2   force =     0.00000718   -0.00000425   -0.01422470
     atom   24 type  2   force =     0.00000261   -0.00000135    0.00927997
     The non-local contrib.  to forces
     atom    1 type  1   force =    -0.00002417    0.00001390    0.35618103
     atom    2 type  1   force =     0.00004801   -0.00002772   -0.08522264
     atom    3 type  1   force =     0.00002231   -0.00001303   -0.10210293
     atom    4 type  1   force =     0.00004793   -0.00002782   -0.08522273
     atom    5 type  1   force =     0.00002264   -0.00001285   -0.10210277
     atom    6 type  1   force =    -0.00002414    0.00001393    0.35618101
     atom    7 type  1   force =     0.00004847   -0.00002799   -0.08522297
     atom    8 type  1   force =     0.00002266   -0.00001291   -0.10210227
     atom    9 type  1   force =    -0.00002414    0.00001384    0.35618109
     atom   10 type  1   force =     0.00004841   -0.00002788   -0.08522295
     atom   11 type  1   force =     0.00002216   -0.00001287   -0.10210322
     atom   12 type  1   force =    -0.00002416    0.00001385    0.35618107
     atom   13 type  2   force =    -0.00027550    0.00015948   -0.04747004
     atom   14 type  2   force =    -0.00001008    0.00000562   -0.44950791
     atom   15 type  2   force =    -0.00004698    0.00002717    0.11371615
     atom   16 type  2   force =    -0.00004694    0.00002700    0.11371631
     atom   17 type  2   force =    -0.00027563    0.00015931   -0.04747023
     atom   18 type  2   force =    -0.00000954    0.00000580   -0.44950808
     atom   19 type  2   force =    -0.00027513    0.00015882   -0.04747069
     atom   20 type  2   force =    -0.00000968    0.00000587   -0.44950782
     atom   21 type  2   force =    -0.00004695    0.00002701    0.11371598
     atom   22 type  2   force =    -0.00027546    0.00015933   -0.04747025
     atom   23 type  2   force =    -0.00001025    0.00000564   -0.44950816
     atom   24 type  2   force =    -0.00004728    0.00002695    0.11371621
     The ionic contribution  to forces
     atom    1 type  1   force =     0.00000062   -0.00000103 -167.56823365
     atom    2 type  1   force =    -0.00001377   -0.00001957  -53.88644650
     atom    3 type  1   force =    -0.00001024    0.00001227   80.02791724
     atom    4 type  1   force =    -0.00000297    0.00001769  -53.88645316
     atom    5 type  1   force =     0.00000702   -0.00000737   80.02792777
     atom    6 type  1   force =     0.00000475   -0.00000180 -167.56823119
     atom    7 type  1   force =     0.00002264   -0.00003124  -53.88645601
     atom    8 type  1   force =     0.00001650    0.00002370   80.02792137
     atom    9 type  1   force =    -0.00000123    0.00000357 -167.56823276
     atom   10 type  1   force =     0.00001018    0.00000841  -53.88644934
     atom   11 type  1   force =    -0.00002147    0.00000292   80.02794471
     atom   12 type  1   force =    -0.00000448   -0.00000021 -167.56822758
     atom   13 type  2   force =    -0.00001144    0.00000988   53.88643765
     atom   14 type  2   force =     0.00000929    0.00000439  188.12656113
     atom   15 type  2   force =     0.00000361   -0.00001556 -100.58625196
     atom   16 type  2   force =     0.00000416    0.00001198 -100.58626457
     atom   17 type  2   force =    -0.00000886   -0.00002094   53.88645403
     atom   18 type  2   force =    -0.00001214   -0.00000315  188.12655812
     atom   19 type  2   force =     0.00000615    0.00001817   53.88645570
     atom   20 type  2   force =    -0.00001042   -0.00000688  188.12656606
     atom   21 type  2   force =    -0.00001530    0.00000675 -100.58623605
     atom   22 type  2   force =     0.00002291   -0.00003952   53.88643932
     atom   23 type  2   force =     0.00001303    0.00000656  188.12655919
     atom   24 type  2   force =    -0.00000852    0.00002098 -100.58625955
     The local contribution  to forces
     atom    1 type  1   force =     0.00002521   -0.00001316  167.24021196
     atom    2 type  1   force =    -0.00006990    0.00006684   54.02353621
     atom    3 type  1   force =    -0.00005829    0.00002520  -79.85520086
     atom    4 type  1   force =    -0.00007994    0.00003113   54.02354246
     atom    5 type  1   force =    -0.00007275    0.00004747  -79.85520764
     atom    6 type  1   force =     0.00002030   -0.00001333  167.24020976
     atom    7 type  1   force =    -0.00010133    0.00007646   54.02354540
     atom    8 type  1   force =    -0.00008392    0.00001642  -79.85519224
     atom    9 type  1   force =     0.00002383   -0.00001667  167.24021277
     atom   10 type  1   force =    -0.00008959    0.00003747   54.02354003
     atom   11 type  1   force =    -0.00004866    0.00003666  -79.85523034
     atom   12 type  1   force =     0.00002783   -0.00001301  167.24020740
     atom   13 type  2   force =     0.00035208   -0.00020321  -53.79873990
     atom   14 type  2   force =     0.00000957   -0.00001399 -187.65011510
     atom   15 type  2   force =     0.00004644   -0.00001567  100.52979030
     atom   16 type  2   force =     0.00004831   -0.00003977  100.52980246
     atom   17 type  2   force =     0.00034562   -0.00017792  -53.79875508
     atom   18 type  2   force =     0.00002917   -0.00000809 -187.65011135
     atom   19 type  2   force =     0.00033225   -0.00021411  -53.79875589
     atom   20 type  2   force =     0.00002691   -0.00000336 -187.65011772
     atom   21 type  2   force =     0.00006574   -0.00003509  100.52977348
     atom   22 type  2   force =     0.00032011   -0.00015836  -53.79874325
     atom   23 type  2   force =     0.00000524   -0.00001636 -187.65011413
     atom   24 type  2   force =     0.00005691   -0.00004904  100.52979707
     The core correction contribution to forces
     atom    1 type  1   force =    -0.00000027    0.00000017   -0.00037718
     atom    2 type  1   force =     0.00000546   -0.00000315   -0.00237387
     atom    3 type  1   force =     0.00000688   -0.00000403   -0.00565329
     atom    4 type  1   force =     0.00000546   -0.00000315   -0.00237388
     atom    5 type  1   force =     0.00000694   -0.00000396   -0.00565326
     atom    6 type  1   force =    -0.00000029    0.00000015   -0.00037718
     atom    7 type  1   force =     0.00000555   -0.00000321   -0.00237385
     atom    8 type  1   force =     0.00000691   -0.00000397   -0.00565318
     atom    9 type  1   force =    -0.00000036    0.00000020   -0.00037715
     atom   10 type  1   force =     0.00000556   -0.00000321   -0.00237386
     atom   11 type  1   force =     0.00000685   -0.00000398   -0.00565326
     atom   12 type  1   force =    -0.00000034    0.00000020   -0.00037717
     atom   13 type  2   force =    -0.00000714    0.00000412    0.00097326
     atom   14 type  2   force =    -0.00000055    0.00000034    0.00841053
     atom   15 type  2   force =    -0.00000083    0.00000044    0.00161361
     atom   16 type  2   force =    -0.00000079    0.00000049    0.00161360
     atom   17 type  2   force =    -0.00000713    0.00000412    0.00097326
     atom   18 type  2   force =    -0.00000059    0.00000031    0.00841053
     atom   19 type  2   force =    -0.00000710    0.00000410    0.00097325
     atom   20 type  2   force =    -0.00000060    0.00000033    0.00841053
     atom   21 type  2   force =    -0.00000083    0.00000048    0.00161359
     atom   22 type  2   force =    -0.00000711    0.00000410    0.00097325
     atom   23 type  2   force =    -0.00000057    0.00000034    0.00841056
     atom   24 type  2   force =    -0.00000086    0.00000049    0.00161361
     The Hubbard contrib.    to forces
     atom    1 type  1   force =     0.00000000    0.00000000    0.00000000
     atom    2 type  1   force =     0.00000000    0.00000000    0.00000000
     atom    3 type  1   force =     0.00000000    0.00000000    0.00000000
     atom    4 type  1   force =     0.00000000    0.00000000    0.00000000
     atom    5 type  1   force =     0.00000000    0.00000000    0.00000000
     atom    6 type  1   force =     0.00000000    0.00000000    0.00000000
     atom    7 type  1   force =     0.00000000    0.00000000    0.00000000
     atom    8 type  1   force =     0.00000000    0.00000000    0.00000000
     atom    9 type  1   force =     0.00000000    0.00000000    0.00000000
     atom   10 type  1   force =     0.00000000    0.00000000    0.00000000
     atom   11 type  1   force =     0.00000000    0.00000000    0.00000000
     atom   12 type  1   force =     0.00000000    0.00000000    0.00000000
     atom   13 type  2   force =     0.00000000    0.00000000    0.00000000
     atom   14 type  2   force =     0.00000000    0.00000000    0.00000000
     atom   15 type  2   force =     0.00000000    0.00000000    0.00000000
     atom   16 type  2   force =     0.00000000    0.00000000    0.00000000
     atom   17 type  2   force =     0.00000000    0.00000000    0.00000000
     atom   18 type  2   force =     0.00000000    0.00000000    0.00000000
     atom   19 type  2   force =     0.00000000    0.00000000    0.00000000
     atom   20 type  2   force =     0.00000000    0.00000000    0.00000000
     atom   21 type  2   force =     0.00000000    0.00000000    0.00000000
     atom   22 type  2   force =     0.00000000    0.00000000    0.00000000
     atom   23 type  2   force =     0.00000000    0.00000000    0.00000000
     atom   24 type  2   force =     0.00000000    0.00000000    0.00000000
     The SCF correction term to forces
     atom    1 type  1   force =    -0.00000179    0.00000031   -0.00001161
     atom    2 type  1   force =     0.00000233   -0.00000064   -0.00003500
     atom    3 type  1   force =     0.00000074    0.00000211   -0.00003167
     atom    4 type  1   force =     0.00000180   -0.00000175   -0.00003451
     atom    5 type  1   force =    -0.00000247   -0.00000106   -0.00003560
     atom    6 type  1   force =    -0.00000097    0.00000131   -0.00001185
     atom    7 type  1   force =    -0.00000295    0.00000177   -0.00003447
     atom    8 type  1   force =    -0.00000049   -0.00000084   -0.00004526
     atom    9 type  1   force =     0.00000158   -0.00000073   -0.00001345
     atom   10 type  1   force =    -0.00000241    0.00000134   -0.00003574
     atom   11 type  1   force =     0.00000246   -0.00000035   -0.00002942
     atom   12 type  1   force =     0.00000078   -0.00000060   -0.00001312
     atom   13 type  2   force =    -0.00000123   -0.00000320   -0.00003912
     atom   14 type  2   force =    -0.00000106   -0.00000057   -0.00002442
     atom   15 type  2   force =     0.00000042    0.00000217   -0.00003956
     atom   16 type  2   force =    -0.00000224   -0.00000113   -0.00003929
     atom   17 type  2   force =     0.00000276    0.00000234   -0.00004004
     atom   18 type  2   force =     0.00000050    0.00000098   -0.00002501
     atom   19 type  2   force =     0.00000063    0.00000037   -0.00004035
     atom   20 type  2   force =     0.00000120   -0.00000013   -0.00002672
     atom   21 type  2   force =    -0.00000026   -0.00000046   -0.00003815
     atom   22 type  2   force =    -0.00000334    0.00000118   -0.00003706
     atom   23 type  2   force =    -0.00000026   -0.00000043   -0.00002366
     atom   24 type  2   force =     0.00000237   -0.00000075   -0.00003886

     Total force =     0.066778     Total SCF correction =     0.000160

     Writing all to output data dir ./temp/GaAs_111_M0D003Ha.save/

     General routines

     Parallel routines

   This run was terminated on:  20:16:11  20Mar2025

   JOB DONE.