     Program PWSCF v.7.2 starts on 20Mar2025 at 18:49:10

     Reading input from GaAs111_M0D002Ha.scf.in

     Current dimensions of program PWSCF are:
     Max number of different atomic species (ntypx) = 10
     Max number of k-points (npk) =  40000
     Max angular momentum in pseudopotentials (lmaxx) =  4
     Found identity + (  0.5000 -0.5000  0.0000) symmetry
     This is a supercell, fractional translations are disabled

     K-points division:     npool     =       8
     R & G space division:  proc/nbgrp/npool/nimage =      18
     Subspace diagonalization in iterative solution of the eigenvalue problem:
     one sub-group per band group will be used

     Using Slab Decomposition

     bravais-lattice index     =            0
     lattice parameter (alat)  =      15.3672  a.u.
     unit-cell volume          =   15443.3545 (a.u.)^3
     number of atoms/cell      =           24
     number of atomic types    =            2
     number of electrons       =       336.00
     number of Kohn-Sham states=          202
     kinetic-energy cutoff     =      80.0000  Ry
     charge density cutoff     =     320.0000  Ry
     scf convergence threshold =      1.0E-09
     mixing beta               =       0.7000
     number of iterations used =            8  plain     mixing
     Exchange-correlation= PBE
                           (   1   4   3   4   0   0   0)

     celldm(1)=  15.367226  celldm(2)=   0.000000  celldm(3)=   0.000000
     celldm(4)=   0.000000  celldm(5)=   0.000000  celldm(6)=   0.000000

     crystal axes: (cart. coord. in units of alat)
               a(1) = (   1.000000   0.000000   0.000000 )
               a(2) = (  -0.500000   0.866025   0.000000 )
               a(3) = (   0.000000   0.000000   4.913881 )

     reciprocal axes: (cart. coord. in units 2 pi/alat)
               b(1) = (  1.000000  0.577350 -0.000000 )
               b(2) = (  0.000000  1.154701  0.000000 )
               b(3) = (  0.000000 -0.000000  0.203505 )

     PseudoPot. # 1 for Ga read from file:
     ./Ga.upf
     MD5 check sum: 93d095ea82f116b4e2622455073fb9ee
     Pseudo is Norm-conserving + core correction, Zval = 13.0
     Generated using ONCVPSP code by D. R. Hamann
     Using radial grid of 1902 points,  6 beta functions with:
                l(1) =   0
                l(2) =   0
                l(3) =   1
                l(4) =   1
                l(5) =   2
                l(6) =   2

     PseudoPot. # 2 for As read from file:
     ./As.upf
     MD5 check sum: 280d9fd8ba68a23ae96e751fcede625c
     Pseudo is Norm-conserving + core correction, Zval = 15.0
     Generated using ONCVPSP code by D. R. Hamann
     Using radial grid of 1350 points,  6 beta functions with:
                l(1) =   0
                l(2) =   0
                l(3) =   1
                l(4) =   1
                l(5) =   2
                l(6) =   2

     atomic species   valence    mass     pseudopotential
        Ga            13.00    69.72000     Ga( 1.00)
        As            15.00    74.92000     As( 1.00)

     No symmetry found

   Cartesian axes

     site n.     atom                  positions (alat units)
         1           Ga  tau(   1) = (   0.0000000   0.0000000   1.8955990  )
         2           Ga  tau(   2) = (   0.0000000   0.5773504   2.3038472  )
         3           Ga  tau(   3) = (   0.5000000   0.2886751   2.7120955  )
         4           Ga  tau(   4) = (   0.7500000   0.1443376   2.3038472  )
         5           Ga  tau(   5) = (  -0.2500001   0.7216878   2.7120955  )
         6           Ga  tau(   6) = (   0.2499999   0.4330127   1.8955990  )
         7           Ga  tau(   7) = (   0.4999999   0.5773504   2.3038472  )
         8           Ga  tau(   8) = (  -0.0000001   0.2886751   2.7120955  )
         9           Ga  tau(   9) = (   0.5000000   0.0000000   1.8955990  )
        10           Ga  tau(  10) = (   0.2500000   0.1443376   2.3038472  )
        11           Ga  tau(  11) = (   0.2500000   0.7216878   2.7120955  )
        12           Ga  tau(  12) = (  -0.2500000   0.4330127   1.8955990  )
        13           As  tau(  13) = (   0.7500000   0.1443376   2.6100335  )
        14           As  tau(  14) = (  -0.2500001   0.7216878   3.0182815  )
        15           As  tau(  15) = (   0.2499999   0.4330127   2.2017852  )
        16           As  tau(  16) = (   0.0000000   0.0000000   2.2017852  )
        17           As  tau(  17) = (   0.0000000   0.5773504   2.6100335  )
        18           As  tau(  18) = (   0.5000000   0.2886751   3.0182815  )
        19           As  tau(  19) = (   0.2500000   0.1443376   2.6100335  )
        20           As  tau(  20) = (   0.2500000   0.7216878   3.0182815  )
        21           As  tau(  21) = (  -0.2500000   0.4330127   2.2017852  )
        22           As  tau(  22) = (   0.4999999   0.5773504   2.6100335  )
        23           As  tau(  23) = (  -0.0000001   0.2886751   3.0182815  )
        24           As  tau(  24) = (   0.5000000   0.0000000   2.2017852  )

     number of k points=    50  Fermi-Dirac smearing, width (Ry)=  0.0000
                       cart. coord. in units 2pi/alat
        k(    1) = (   0.0500000   0.0866025   0.0000000), wk =   0.0400000
        k(    2) = (   0.0500000   0.2020726   0.0000000), wk =   0.0400000
        k(    3) = (   0.0500000   0.3175426   0.0000000), wk =   0.0400000
        k(    4) = (   0.0500000   0.4330127   0.0000000), wk =   0.0400000
        k(    5) = (   0.0500000   0.5484828   0.0000000), wk =   0.0400000
        k(    6) = (   0.0500000  -0.4907477   0.0000000), wk =   0.0400000
        k(    7) = (   0.0500000  -0.3752777   0.0000000), wk =   0.0400000
        k(    8) = (   0.0500000  -0.2598076   0.0000000), wk =   0.0400000
        k(    9) = (   0.0500000  -0.1443376   0.0000000), wk =   0.0400000
        k(   10) = (   0.0500000  -0.0288675   0.0000000), wk =   0.0400000
        k(   11) = (   0.1500000   0.1443376   0.0000000), wk =   0.0400000
        k(   12) = (   0.1500000   0.2598076   0.0000000), wk =   0.0400000
        k(   13) = (   0.1500000   0.3752777   0.0000000), wk =   0.0400000
        k(   14) = (   0.1500000   0.4907477   0.0000000), wk =   0.0400000
        k(   15) = (   0.1500000   0.6062178   0.0000000), wk =   0.0400000
        k(   16) = (   0.1500000  -0.4330127   0.0000000), wk =   0.0400000
        k(   17) = (   0.1500000  -0.3175426   0.0000000), wk =   0.0400000
        k(   18) = (   0.1500000  -0.2020726   0.0000000), wk =   0.0400000
        k(   19) = (   0.1500000  -0.0866025   0.0000000), wk =   0.0400000
        k(   20) = (   0.1500000   0.0288675   0.0000000), wk =   0.0400000
        k(   21) = (   0.2500000   0.2020726   0.0000000), wk =   0.0400000
        k(   22) = (   0.2500000   0.3175426   0.0000000), wk =   0.0400000
        k(   23) = (   0.2500000   0.4330127   0.0000000), wk =   0.0400000
        k(   24) = (   0.2500000   0.5484828   0.0000000), wk =   0.0400000
        k(   25) = (   0.2500000   0.6639528   0.0000000), wk =   0.0400000
        k(   26) = (   0.2500000  -0.3752777   0.0000000), wk =   0.0400000
        k(   27) = (   0.2500000  -0.2598076   0.0000000), wk =   0.0400000
        k(   28) = (   0.2500000  -0.1443376   0.0000000), wk =   0.0400000
        k(   29) = (   0.2500000  -0.0288675   0.0000000), wk =   0.0400000
        k(   30) = (   0.2500000   0.0866025   0.0000000), wk =   0.0400000
        k(   31) = (   0.3500000   0.2598076   0.0000000), wk =   0.0400000
        k(   32) = (   0.3500000   0.3752777   0.0000000), wk =   0.0400000
        k(   33) = (   0.3500000   0.4907477   0.0000000), wk =   0.0400000
        k(   34) = (   0.3500000   0.6062178   0.0000000), wk =   0.0400000
        k(   35) = (   0.3500000   0.7216878   0.0000000), wk =   0.0400000
        k(   36) = (   0.3500000  -0.3175426   0.0000000), wk =   0.0400000
        k(   37) = (   0.3500000  -0.2020726   0.0000000), wk =   0.0400000
        k(   38) = (   0.3500000  -0.0866025   0.0000000), wk =   0.0400000
        k(   39) = (   0.3500000   0.0288675   0.0000000), wk =   0.0400000
        k(   40) = (   0.3500000   0.1443376   0.0000000), wk =   0.0400000
        k(   41) = (   0.4500000   0.3175426   0.0000000), wk =   0.0400000
        k(   42) = (   0.4500000   0.4330127   0.0000000), wk =   0.0400000
        k(   43) = (   0.4500000   0.5484828   0.0000000), wk =   0.0400000
        k(   44) = (   0.4500000   0.6639528   0.0000000), wk =   0.0400000
        k(   45) = (   0.4500000   0.7794229   0.0000000), wk =   0.0400000
        k(   46) = (   0.4500000  -0.2598076   0.0000000), wk =   0.0400000
        k(   47) = (   0.4500000  -0.1443376   0.0000000), wk =   0.0400000
        k(   48) = (   0.4500000  -0.0288675   0.0000000), wk =   0.0400000
        k(   49) = (   0.4500000   0.0866025   0.0000000), wk =   0.0400000
        k(   50) = (   0.4500000   0.2020726   0.0000000), wk =   0.0400000

     Initial potential from superposition of free atoms

     starting charge     335.9650, renormalised to     336.0000

     negative rho (up, down):  1.366E-04 0.000E+00

     Adding external electric field

     Computed dipole along edir(3) :
        Dipole               -0.0747 Ry au,         -0.1897 Debye
        Dipole field         -0.0001 Ry au,

        E field amplitude [Ha a.u.]: -2.0000E-03
        Potential amp.       -0.2343 Ry
        Total length         60.4102 bohr

     Starting wfcs are  216 atomic wfcs

     Self-consistent Calculation

     iteration #  1     ecut=    80.00 Ry     beta= 0.70
     Davidson diagonalization with overlap
     ethr =  1.00E-02,  avg # of iterations =  3.0

     Threshold (ethr) on eigenvalues was too large:
     Diagonalizing with lowered threshold

     Davidson diagonalization with overlap
     ethr =  8.64E-04,  avg # of iterations =  2.0

[...]

     total energy              =   -4144.54135207 Ry
     estimated scf accuracy    <       2.87531694 Ry

[...]

     negative rho (up, down):  2.971E-08 0.000E+00

[...]

     total energy              =   -4146.60507937 Ry
     estimated scf accuracy    <          6.6E-09 Ry

     iteration # 48     ecut=    80.00 Ry     beta= 0.70
     Davidson diagonalization with overlap
     ethr =  1.96E-12,  avg # of iterations =  1.0

     Adding external electric field

     Computed dipole along edir(3) :
        Dipole               -1.2956 Ry au,         -3.2931 Debye
        Dipole field         -0.0011 Ry au,

        E field amplitude [Ha a.u.]: -2.0000E-03
        Potential amp.       -0.1143 Ry
        Total length         60.4102 bohr

     End of self-consistent calculation

          k = 0.0500 0.0866 0.0000 (186449 PWs)   bands (ev):

   -37.2326 -37.2326 -37.2326 -37.2326 -37.2326 -37.2319 -37.2319 -37.2319
   -37.0439 -37.0438 -37.0438 -37.0437 -37.0427 -37.0427 -37.0425 -37.0425
   -36.9843 -36.9839 -36.9839 -36.9839 -36.7175 -36.7170 -36.7170 -36.7170
   -36.7060 -36.7059 -36.7059 -36.7056 -36.7056 -36.7056 -36.7055 -36.7055
   -36.6843 -36.6843 -36.6843 -36.6843 -36.6843 -36.6832 -36.6832 -36.6832
   -36.5868 -36.5868 -36.5868 -36.5867 -36.5867 -36.5856 -36.5856 -36.5856
[...]
   -15.9285 -15.9284 -15.9284 -15.9157 -15.9156 -15.9156 -15.9155 -15.9153
   -13.5681 -12.8642 -12.1683 -12.1683 -12.1179 -11.8317 -11.8317 -11.8131
   -11.5083 -11.1851 -11.1847 -11.1847  -8.0138  -7.8377  -7.8209  -7.8209
    -7.4941  -7.4420  -7.4420  -6.5236  -6.5236  -6.5049  -6.1757  -4.3756
    -4.3703  -4.3703  -4.0921  -3.7903  -3.7217  -3.7217  -3.3906  -3.2566
    -3.2566  -3.0487  -3.0373  -3.0373  -2.9533  -2.9533  -2.9131  -2.5640
    -2.3953  -2.2689  -2.2689  -2.2592  -2.1000  -1.9964  -1.8836  -1.7490
    -1.7010  -1.7010  -1.0084  -0.9527  -0.9527  -0.4987  -0.3870  -0.3138
    -0.1138   0.3731   0.3731   0.4838   0.6278   0.6278   0.7234   1.3733
     1.5001   1.5001   1.6291   1.6674   1.6858   1.6858   2.1946   2.3756
     2.6901   2.7380   2.7380   2.7744   3.1026   3.1933   3.2360   3.3024
     3.3860   3.4510

[...]

          k = 0.4500 0.2021 0.0000 (186681 PWs)   bands (ev):

   -37.2326 -37.2326 -37.2324 -37.2324 -37.2323 -37.2321 -37.2320 -37.2320
   -37.0439 -37.0438 -37.0437 -37.0437 -37.0426 -37.0426 -37.0426 -37.0425
   -36.9841 -36.9840 -36.9839 -36.9838 -36.7173 -36.7172 -36.7170 -36.7170
   -36.7059 -36.7059 -36.7058 -36.7057 -36.7056 -36.7056 -36.7056 -36.7056
   -36.6843 -36.6843 -36.6841 -36.6840 -36.6839 -36.6836 -36.6835 -36.6835
   -36.5867 -36.5867 -36.5865 -36.5865 -36.5863 -36.5860 -36.5859 -36.5859
   -36.5448 -36.5448 -36.5447 -36.5446 -36.5446 -36.5445 -36.5445 -36.5445
   -36.5408 -36.5406 -36.5404 -36.5404 -16.6431 -16.6427 -16.6405 -16.6395
   -16.6366 -16.6333 -16.6316 -16.6316 -16.5117 -16.5111 -16.5103 -16.5102
   -16.5013 -16.5011 -16.4991 -16.4980 -16.4977 -16.4972 -16.4964 -16.4957
   -16.3174 -16.3169 -16.3140 -16.3103 -16.2771 -16.2768 -16.2741 -16.2722
   -16.2561 -16.2515 -16.2479 -16.2475 -16.2152 -16.2149 -16.2148 -16.2125
   -16.2072 -16.2068 -16.2063 -16.2058 -16.0461 -16.0445 -16.0358 -16.0260
   -15.9799 -15.9776 -15.9741 -15.9720 -15.9712 -15.9693 -15.9637 -15.9633
   -15.9260 -15.9259 -15.9241 -15.9210 -15.9190 -15.9181 -15.9159 -15.9158
   -13.1773 -12.8736 -12.5251 -12.2851 -12.2764 -12.0981 -11.8601 -11.7659
   -11.3557 -11.2652 -11.1718 -11.1696  -7.7164  -7.7141  -7.6357  -7.5542
    -7.2614  -7.0697  -6.6393  -6.5220  -6.4822  -6.3277  -5.9324  -5.1323
    -4.7170  -4.5094  -4.4835  -4.4214  -4.2684  -4.1698  -4.1344  -4.0626
    -3.3272  -3.0697  -3.0611  -3.0080  -2.7743  -2.7474  -2.6891  -2.5763
    -2.5651  -2.4921  -2.4336  -2.4325  -2.3877  -2.2279  -2.0126  -1.7432
    -1.5806  -1.5416  -1.2224  -1.0767  -0.7454  -0.6063  -0.4612  -0.0591
     0.2412   0.2672   0.6535   0.9045   0.9371   1.0482   1.8400   1.8587
     1.9242   1.9243   2.0714   2.0878   2.1210   2.1615   2.3819   2.4928
     2.5617   2.6140   2.8166   3.0366   3.2729   3.2934   3.4904   3.5643
     3.7023   3.7513

     the Fermi energy is    -1.6778 ev

!    total energy              =   -4146.60507937 Ry
     estimated scf accuracy    <          3.2E-10 Ry
     smearing contrib. (-TS)   =      -0.00000041 Ry
     internal energy E=F+TS    =   -4146.60507896 Ry

     The total energy is F=E-TS. E is the sum of the following terms:
     one-electron contribution =  -50028.31619674 Ry
     hartree contribution      =   25090.26535799 Ry
     xc contribution           =    -964.55376997 Ry
     ewald contribution        =   21756.00334631 Ry
     electric field correction =      -0.00381654 Ry

     convergence has been achieved in  48 iterations

     Forces acting on atoms (cartesian axes, Ry/au):

     atom    1 type  1   force =     0.00000142   -0.00000082   -0.01495202
     atom    2 type  1   force =    -0.00004341    0.00002474    0.00651912
     atom    3 type  1   force =    -0.00003660    0.00002119    0.02200634
     atom    4 type  1   force =    -0.00004329    0.00002508    0.00651909
     atom    5 type  1   force =    -0.00003640    0.00002112    0.02200639
     atom    6 type  1   force =     0.00000142   -0.00000082   -0.01495200
     atom    7 type  1   force =    -0.00004301    0.00002465    0.00651904
     atom    8 type  1   force =    -0.00003623    0.00002127    0.02200635
     atom    9 type  1   force =     0.00000146   -0.00000082   -0.01495203
     atom   10 type  1   force =    -0.00004319    0.00002502    0.00651915
     atom   11 type  1   force =    -0.00003671    0.00002127    0.02200659
     atom   12 type  1   force =     0.00000145   -0.00000083   -0.01495197
     atom   13 type  2   force =     0.00005309   -0.00003074   -0.00845733
     atom   14 type  2   force =     0.00000662   -0.00000388   -0.01420128
     atom   15 type  2   force =     0.00001843   -0.00001063    0.00908505
     atom   16 type  2   force =     0.00001835   -0.00001052    0.00908498
     atom   17 type  2   force =     0.00005307   -0.00003103   -0.00845719
     atom   18 type  2   force =     0.00000676   -0.00000384   -0.01420125
     atom   19 type  2   force =     0.00005326   -0.00003064   -0.00845719
     atom   20 type  2   force =     0.00000674   -0.00000381   -0.01420133
     atom   21 type  2   force =     0.00001822   -0.00001046    0.00908518
     atom   22 type  2   force =     0.00005362   -0.00003120   -0.00845734
     atom   23 type  2   force =     0.00000658   -0.00000388   -0.01420136
     atom   24 type  2   force =     0.00001835   -0.00001045    0.00908500
     The non-local contrib.  to forces
     atom    1 type  1   force =    -0.00002913    0.00001681    0.35590902
     atom    2 type  1   force =     0.00013168   -0.00007606   -0.08507111
     atom    3 type  1   force =     0.00001003   -0.00000570   -0.10275848
     atom    4 type  1   force =     0.00013163   -0.00007612   -0.08507109
     atom    5 type  1   force =     0.00001004   -0.00000583   -0.10275839
     atom    6 type  1   force =    -0.00002912    0.00001679    0.35590900
     atom    7 type  1   force =     0.00013176   -0.00007608   -0.08507086
     atom    8 type  1   force =     0.00001032   -0.00000588   -0.10275844
     atom    9 type  1   force =    -0.00002923    0.00001677    0.35590905
     atom   10 type  1   force =     0.00013167   -0.00007596   -0.08507111
     atom   11 type  1   force =     0.00001014   -0.00000575   -0.10275852
     atom   12 type  1   force =    -0.00002923    0.00001678    0.35590899
     atom   13 type  2   force =    -0.00018451    0.00010694   -0.04752093
     atom   14 type  2   force =    -0.00004065    0.00002322   -0.45136064
     atom   15 type  2   force =    -0.00005979    0.00003478    0.11258707
     atom   16 type  2   force =    -0.00005998    0.00003432    0.11258722
     atom   17 type  2   force =    -0.00018459    0.00010678   -0.04752108
     atom   18 type  2   force =    -0.00004011    0.00002343   -0.45136066
     atom   19 type  2   force =    -0.00018462    0.00010654   -0.04752110
     atom   20 type  2   force =    -0.00004007    0.00002344   -0.45136066
     atom   21 type  2   force =    -0.00005986    0.00003438    0.11258678
     atom   22 type  2   force =    -0.00018492    0.00010709   -0.04752078
     atom   23 type  2   force =    -0.00004066    0.00002318   -0.45136065
     atom   24 type  2   force =    -0.00005995    0.00003435    0.11258710
     The ionic contribution  to forces
     atom    1 type  1   force =     0.00000062   -0.00000103 -167.56823365
     atom    2 type  1   force =    -0.00001377   -0.00001957  -53.88644650
     atom    3 type  1   force =    -0.00001024    0.00001227   80.02791724
     atom    4 type  1   force =    -0.00000297    0.00001769  -53.88645316
     atom    5 type  1   force =     0.00000702   -0.00000737   80.02792777
     atom    6 type  1   force =     0.00000475   -0.00000180 -167.56823119
     atom    7 type  1   force =     0.00002264   -0.00003124  -53.88645601
     atom    8 type  1   force =     0.00001650    0.00002370   80.02792137
     atom    9 type  1   force =    -0.00000123    0.00000357 -167.56823276
     atom   10 type  1   force =     0.00001018    0.00000841  -53.88644934
     atom   11 type  1   force =    -0.00002147    0.00000292   80.02794471
     atom   12 type  1   force =    -0.00000448   -0.00000021 -167.56822758
     atom   13 type  2   force =    -0.00001144    0.00000988   53.88643765
     atom   14 type  2   force =     0.00000929    0.00000439  188.12656113
     atom   15 type  2   force =     0.00000361   -0.00001556 -100.58625196
     atom   16 type  2   force =     0.00000416    0.00001198 -100.58626457
     atom   17 type  2   force =    -0.00000886   -0.00002094   53.88645403
     atom   18 type  2   force =    -0.00001214   -0.00000315  188.12655812
     atom   19 type  2   force =     0.00000615    0.00001817   53.88645570
     atom   20 type  2   force =    -0.00001042   -0.00000688  188.12656606
     atom   21 type  2   force =    -0.00001530    0.00000675 -100.58623605
     atom   22 type  2   force =     0.00002291   -0.00003952   53.88643932
     atom   23 type  2   force =     0.00001303    0.00000656  188.12655919
     atom   24 type  2   force =    -0.00000852    0.00002098 -100.58625955
     The local contribution  to forces
     atom    1 type  1   force =     0.00003063   -0.00001697  167.22234376
     atom    2 type  1   force =    -0.00017046    0.00012568   54.00497209
     atom    3 type  1   force =    -0.00004358    0.00001879  -79.87291512
     atom    4 type  1   force =    -0.00018115    0.00008879   54.00497874
     atom    5 type  1   force =    -0.00006067    0.00003845  -79.87292570
     atom    6 type  1   force =     0.00002640   -0.00001620  167.22234140
     atom    7 type  1   force =    -0.00020750    0.00013775   54.00498152
     atom    8 type  1   force =    -0.00006823    0.00000644  -79.87291954
     atom    9 type  1   force =     0.00003267   -0.00002168  167.22234266
     atom   10 type  1   force =    -0.00019507    0.00009840   54.00497515
     atom   11 type  1   force =    -0.00003056    0.00002710  -79.87294338
     atom   12 type  1   force =     0.00003601   -0.00001778  167.22233752
     atom   13 type  2   force =     0.00025571   -0.00015132  -53.82001572
     atom   14 type  2   force =     0.00003832   -0.00003166 -187.66948575
     atom   15 type  2   force =     0.00007738   -0.00003137  100.50947654
     atom   16 type  2   force =     0.00007696   -0.00005851  100.50948886
     atom   17 type  2   force =     0.00025307   -0.00012074  -53.82003186
     atom   18 type  2   force =     0.00005950   -0.00002445 -187.66948263
     atom   19 type  2   force =     0.00023728   -0.00015859  -53.82003345
     atom   20 type  2   force =     0.00005859   -0.00002106 -187.66949040
     atom   21 type  2   force =     0.00009544   -0.00005266  100.50946107
     atom   22 type  2   force =     0.00022132   -0.00010205  -53.82001781
     atom   23 type  2   force =     0.00003556   -0.00003450 -187.66948370
     atom   24 type  2   force =     0.00008883   -0.00006708  100.50948402
     The core correction contribution to forces
     atom    1 type  1   force =    -0.00000071    0.00000041   -0.00039547
     atom    2 type  1   force =     0.00000938   -0.00000540   -0.00237398
     atom    3 type  1   force =     0.00000622   -0.00000358   -0.00567636
     atom    4 type  1   force =     0.00000937   -0.00000542   -0.00237398
     atom    5 type  1   force =     0.00000620   -0.00000360   -0.00567635
     atom    6 type  1   force =    -0.00000071    0.00000041   -0.00039547
     atom    7 type  1   force =     0.00000935   -0.00000539   -0.00237398
     atom    8 type  1   force =     0.00000623   -0.00000360   -0.00567637
     atom    9 type  1   force =    -0.00000072    0.00000041   -0.00039547
     atom   10 type  1   force =     0.00000936   -0.00000540   -0.00237400
     atom   11 type  1   force =     0.00000624   -0.00000361   -0.00567638
     atom   12 type  1   force =    -0.00000071    0.00000041   -0.00039548
     atom   13 type  2   force =    -0.00000631    0.00000363    0.00098080
     atom   14 type  2   force =    -0.00000083    0.00000048    0.00843882
     atom   15 type  2   force =    -0.00000238    0.00000136    0.00161503
     atom   16 type  2   force =    -0.00000237    0.00000138    0.00161502
     atom   17 type  2   force =    -0.00000630    0.00000366    0.00098080
     atom   18 type  2   force =    -0.00000084    0.00000048    0.00843882
     atom   19 type  2   force =    -0.00000633    0.00000366    0.00098079
     atom   20 type  2   force =    -0.00000083    0.00000048    0.00843883
     atom   21 type  2   force =    -0.00000238    0.00000138    0.00161503
     atom   22 type  2   force =    -0.00000634    0.00000366    0.00098079
     atom   23 type  2   force =    -0.00000082    0.00000048    0.00843882
     atom   24 type  2   force =    -0.00000239    0.00000138    0.00161502
     The Hubbard contrib.    to forces
     atom    1 type  1   force =     0.00000000    0.00000000    0.00000000
     atom    2 type  1   force =     0.00000000    0.00000000    0.00000000
     atom    3 type  1   force =     0.00000000    0.00000000    0.00000000
     atom    4 type  1   force =     0.00000000    0.00000000    0.00000000
     atom    5 type  1   force =     0.00000000    0.00000000    0.00000000
     atom    6 type  1   force =     0.00000000    0.00000000    0.00000000
     atom    7 type  1   force =     0.00000000    0.00000000    0.00000000
     atom    8 type  1   force =     0.00000000    0.00000000    0.00000000
     atom    9 type  1   force =     0.00000000    0.00000000    0.00000000
     atom   10 type  1   force =     0.00000000    0.00000000    0.00000000
     atom   11 type  1   force =     0.00000000    0.00000000    0.00000000
     atom   12 type  1   force =     0.00000000    0.00000000    0.00000000
     atom   13 type  2   force =     0.00000000    0.00000000    0.00000000
     atom   14 type  2   force =     0.00000000    0.00000000    0.00000000
     atom   15 type  2   force =     0.00000000    0.00000000    0.00000000
     atom   16 type  2   force =     0.00000000    0.00000000    0.00000000
     atom   17 type  2   force =     0.00000000    0.00000000    0.00000000
     atom   18 type  2   force =     0.00000000    0.00000000    0.00000000
     atom   19 type  2   force =     0.00000000    0.00000000    0.00000000
     atom   20 type  2   force =     0.00000000    0.00000000    0.00000000
     atom   21 type  2   force =     0.00000000    0.00000000    0.00000000
     atom   22 type  2   force =     0.00000000    0.00000000    0.00000000
     atom   23 type  2   force =     0.00000000    0.00000000    0.00000000
     atom   24 type  2   force =     0.00000000    0.00000000    0.00000000
     The SCF correction term to forces
     atom    1 type  1   force =     0.00000001   -0.00000003    0.00001450
     atom    2 type  1   force =    -0.00000024    0.00000009    0.00002882
     atom    3 type  1   force =     0.00000097   -0.00000060    0.00002925
     atom    4 type  1   force =    -0.00000017    0.00000015    0.00002877
     atom    5 type  1   force =     0.00000101   -0.00000052    0.00002925
     atom    6 type  1   force =     0.00000011   -0.00000002    0.00001446
     atom    7 type  1   force =     0.00000075   -0.00000038    0.00002856
     atom    8 type  1   force =    -0.00000104    0.00000062    0.00002952
     atom    9 type  1   force =    -0.00000003    0.00000011    0.00001468
     atom   10 type  1   force =     0.00000067   -0.00000043    0.00002865
     atom   11 type  1   force =    -0.00000107    0.00000062    0.00003037
     atom   12 type  1   force =    -0.00000013   -0.00000002    0.00001477
     atom   13 type  2   force =    -0.00000037    0.00000013    0.00003409
     atom   14 type  2   force =     0.00000049   -0.00000033    0.00001837
     atom   15 type  2   force =    -0.00000039    0.00000016    0.00003158
     atom   16 type  2   force =    -0.00000042    0.00000031    0.00003166
     atom   17 type  2   force =    -0.00000024    0.00000022    0.00003414
     atom   18 type  2   force =     0.00000035   -0.00000015    0.00001832
     atom   19 type  2   force =     0.00000077   -0.00000042    0.00003407
     atom   20 type  2   force =    -0.00000052    0.00000022    0.00001806
     atom   21 type  2   force =     0.00000031   -0.00000030    0.00003156
     atom   22 type  2   force =     0.00000064   -0.00000039    0.00003435
     atom   23 type  2   force =    -0.00000053    0.00000041    0.00001820
     atom   24 type  2   force =     0.00000038   -0.00000007    0.00003162

     Total force =     0.066516     Total SCF correction =     0.000133

     Writing all to output data dir ./temp/GaAs_111_M0D002Ha.save/

     General routines

     Parallel routines

   This run was terminated on:  19:13:17  20Mar2025

   JOB DONE.