     Program PWSCF v.7.2 starts on 20Mar2025 at 16:55: 7

     Reading input from GaAs111_0D0Ha.scf.in

     Current dimensions of program PWSCF are:
     Max number of different atomic species (ntypx) = 10
     Max number of k-points (npk) =  40000
     Max angular momentum in pseudopotentials (lmaxx) =  4
     Found identity + (  0.5000 -0.5000  0.0000) symmetry
     This is a supercell, fractional translations are disabled

     K-points division:     npool     =       8
     R & G space division:  proc/nbgrp/npool/nimage =      18
     Subspace diagonalization in iterative solution of the eigenvalue problem:
     one sub-group per band group will be used

     Using Slab Decomposition

     bravais-lattice index     =            0
     lattice parameter (alat)  =      15.3672  a.u.
     unit-cell volume          =   15443.3545 (a.u.)^3
     number of atoms/cell      =           24
     number of atomic types    =            2
     number of electrons       =       336.00
     number of Kohn-Sham states=          202
     kinetic-energy cutoff     =      80.0000  Ry
     charge density cutoff     =     320.0000  Ry
     scf convergence threshold =      1.0E-09
     mixing beta               =       0.7000
     number of iterations used =            8  plain     mixing
     Exchange-correlation= PBE
                           (   1   4   3   4   0   0   0)

     celldm(1)=  15.367226  celldm(2)=   0.000000  celldm(3)=   0.000000
     celldm(4)=   0.000000  celldm(5)=   0.000000  celldm(6)=   0.000000

     crystal axes: (cart. coord. in units of alat)
               a(1) = (   1.000000   0.000000   0.000000 )
               a(2) = (  -0.500000   0.866025   0.000000 )
               a(3) = (   0.000000   0.000000   4.913881 )

     reciprocal axes: (cart. coord. in units 2 pi/alat)
               b(1) = (  1.000000  0.577350 -0.000000 )
               b(2) = (  0.000000  1.154701  0.000000 )
               b(3) = (  0.000000 -0.000000  0.203505 )

     PseudoPot. # 1 for Ga read from file:
     ./Ga.upf
     MD5 check sum: 93d095ea82f116b4e2622455073fb9ee
     Pseudo is Norm-conserving + core correction, Zval = 13.0
     Generated using ONCVPSP code by D. R. Hamann
     Using radial grid of 1902 points,  6 beta functions with:
                l(1) =   0
                l(2) =   0
                l(3) =   1
                l(4) =   1
                l(5) =   2
                l(6) =   2

     PseudoPot. # 2 for As read from file:
     ./As.upf
     MD5 check sum: 280d9fd8ba68a23ae96e751fcede625c
     Pseudo is Norm-conserving + core correction, Zval = 15.0
     Generated using ONCVPSP code by D. R. Hamann
     Using radial grid of 1350 points,  6 beta functions with:
                l(1) =   0
                l(2) =   0
                l(3) =   1
                l(4) =   1
                l(5) =   2
                l(6) =   2

     atomic species   valence    mass     pseudopotential
        Ga            13.00    69.72000     Ga( 1.00)
        As            15.00    74.92000     As( 1.00)

     No symmetry found

   Cartesian axes

     site n.     atom                  positions (alat units)
         1           Ga  tau(   1) = (   0.0000000   0.0000000   1.8955990  )
         2           Ga  tau(   2) = (   0.0000000   0.5773504   2.3038472  )
         3           Ga  tau(   3) = (   0.5000000   0.2886751   2.7120955  )
         4           Ga  tau(   4) = (   0.7500000   0.1443376   2.3038472  )
         5           Ga  tau(   5) = (  -0.2500001   0.7216878   2.7120955  )
         6           Ga  tau(   6) = (   0.2499999   0.4330127   1.8955990  )
         7           Ga  tau(   7) = (   0.4999999   0.5773504   2.3038472  )
         8           Ga  tau(   8) = (  -0.0000001   0.2886751   2.7120955  )
         9           Ga  tau(   9) = (   0.5000000   0.0000000   1.8955990  )
        10           Ga  tau(  10) = (   0.2500000   0.1443376   2.3038472  )
        11           Ga  tau(  11) = (   0.2500000   0.7216878   2.7120955  )
        12           Ga  tau(  12) = (  -0.2500000   0.4330127   1.8955990  )
        13           As  tau(  13) = (   0.7500000   0.1443376   2.6100335  )
        14           As  tau(  14) = (  -0.2500001   0.7216878   3.0182815  )
        15           As  tau(  15) = (   0.2499999   0.4330127   2.2017852  )
        16           As  tau(  16) = (   0.0000000   0.0000000   2.2017852  )
        17           As  tau(  17) = (   0.0000000   0.5773504   2.6100335  )
        18           As  tau(  18) = (   0.5000000   0.2886751   3.0182815  )
        19           As  tau(  19) = (   0.2500000   0.1443376   2.6100335  )
        20           As  tau(  20) = (   0.2500000   0.7216878   3.0182815  )
        21           As  tau(  21) = (  -0.2500000   0.4330127   2.2017852  )
        22           As  tau(  22) = (   0.4999999   0.5773504   2.6100335  )
        23           As  tau(  23) = (  -0.0000001   0.2886751   3.0182815  )
        24           As  tau(  24) = (   0.5000000   0.0000000   2.2017852  )

     number of k points=    50  Fermi-Dirac smearing, width (Ry)=  0.0000
                       cart. coord. in units 2pi/alat
        k(    1) = (   0.0500000   0.0866025   0.0000000), wk =   0.0400000
        k(    2) = (   0.0500000   0.2020726   0.0000000), wk =   0.0400000
        k(    3) = (   0.0500000   0.3175426   0.0000000), wk =   0.0400000
        k(    4) = (   0.0500000   0.4330127   0.0000000), wk =   0.0400000
        k(    5) = (   0.0500000   0.5484828   0.0000000), wk =   0.0400000
        k(    6) = (   0.0500000  -0.4907477   0.0000000), wk =   0.0400000
        k(    7) = (   0.0500000  -0.3752777   0.0000000), wk =   0.0400000
        k(    8) = (   0.0500000  -0.2598076   0.0000000), wk =   0.0400000
        k(    9) = (   0.0500000  -0.1443376   0.0000000), wk =   0.0400000
        k(   10) = (   0.0500000  -0.0288675   0.0000000), wk =   0.0400000
        k(   11) = (   0.1500000   0.1443376   0.0000000), wk =   0.0400000
        k(   12) = (   0.1500000   0.2598076   0.0000000), wk =   0.0400000
        k(   13) = (   0.1500000   0.3752777   0.0000000), wk =   0.0400000
        k(   14) = (   0.1500000   0.4907477   0.0000000), wk =   0.0400000
        k(   15) = (   0.1500000   0.6062178   0.0000000), wk =   0.0400000
        k(   16) = (   0.1500000  -0.4330127   0.0000000), wk =   0.0400000
        k(   17) = (   0.1500000  -0.3175426   0.0000000), wk =   0.0400000
        k(   18) = (   0.1500000  -0.2020726   0.0000000), wk =   0.0400000
        k(   19) = (   0.1500000  -0.0866025   0.0000000), wk =   0.0400000
        k(   20) = (   0.1500000   0.0288675   0.0000000), wk =   0.0400000
        k(   21) = (   0.2500000   0.2020726   0.0000000), wk =   0.0400000
        k(   22) = (   0.2500000   0.3175426   0.0000000), wk =   0.0400000
        k(   23) = (   0.2500000   0.4330127   0.0000000), wk =   0.0400000
        k(   24) = (   0.2500000   0.5484828   0.0000000), wk =   0.0400000
        k(   25) = (   0.2500000   0.6639528   0.0000000), wk =   0.0400000
        k(   26) = (   0.2500000  -0.3752777   0.0000000), wk =   0.0400000
        k(   27) = (   0.2500000  -0.2598076   0.0000000), wk =   0.0400000
        k(   28) = (   0.2500000  -0.1443376   0.0000000), wk =   0.0400000
        k(   29) = (   0.2500000  -0.0288675   0.0000000), wk =   0.0400000
        k(   30) = (   0.2500000   0.0866025   0.0000000), wk =   0.0400000
        k(   31) = (   0.3500000   0.2598076   0.0000000), wk =   0.0400000
        k(   32) = (   0.3500000   0.3752777   0.0000000), wk =   0.0400000
        k(   33) = (   0.3500000   0.4907477   0.0000000), wk =   0.0400000
        k(   34) = (   0.3500000   0.6062178   0.0000000), wk =   0.0400000
        k(   35) = (   0.3500000   0.7216878   0.0000000), wk =   0.0400000
        k(   36) = (   0.3500000  -0.3175426   0.0000000), wk =   0.0400000
        k(   37) = (   0.3500000  -0.2020726   0.0000000), wk =   0.0400000
        k(   38) = (   0.3500000  -0.0866025   0.0000000), wk =   0.0400000
        k(   39) = (   0.3500000   0.0288675   0.0000000), wk =   0.0400000
        k(   40) = (   0.3500000   0.1443376   0.0000000), wk =   0.0400000
        k(   41) = (   0.4500000   0.3175426   0.0000000), wk =   0.0400000
        k(   42) = (   0.4500000   0.4330127   0.0000000), wk =   0.0400000
        k(   43) = (   0.4500000   0.5484828   0.0000000), wk =   0.0400000
        k(   44) = (   0.4500000   0.6639528   0.0000000), wk =   0.0400000
        k(   45) = (   0.4500000   0.7794229   0.0000000), wk =   0.0400000
        k(   46) = (   0.4500000  -0.2598076   0.0000000), wk =   0.0400000
        k(   47) = (   0.4500000  -0.1443376   0.0000000), wk =   0.0400000
        k(   48) = (   0.4500000  -0.0288675   0.0000000), wk =   0.0400000
        k(   49) = (   0.4500000   0.0866025   0.0000000), wk =   0.0400000
        k(   50) = (   0.4500000   0.2020726   0.0000000), wk =   0.0400000

     Initial potential from superposition of free atoms

     starting charge     335.9650, renormalised to     336.0000

     negative rho (up, down):  1.366E-04 0.000E+00

     Adding external electric field

     Computed dipole along edir(3) :
        Dipole               -0.0747 Ry au,         -0.1897 Debye
        Dipole field         -0.0001 Ry au,

        Potential amp.        0.0073 Ry
        Total length         60.4102 bohr

     Starting wfcs are  216 atomic wfcs

     Self-consistent Calculation

     iteration #  1     ecut=    80.00 Ry     beta= 0.70
     Davidson diagonalization with overlap
     ethr =  1.00E-02,  avg # of iterations =  3.0

     Threshold (ethr) on eigenvalues was too large:
     Diagonalizing with lowered threshold

     Davidson diagonalization with overlap
     ethr =  4.78E-04,  avg # of iterations =  2.1

[...]

     total energy              =   -4145.62891923 Ry
     estimated scf accuracy    <       1.60068485 Ry

[...]

     iteration #  8     ecut=    80.00 Ry     beta= 0.70
     Davidson diagonalization with overlap
     c_bands:  1 eigenvalues not converged
     ethr =  2.42E-05,  avg # of iterations =  7.5

[...]

     iteration # 15     ecut=    80.00 Ry     beta= 0.70
     Davidson diagonalization with overlap
     c_bands:  1 eigenvalues not converged
     ethr =  5.93E-07,  avg # of iterations =  9.8

[...]

     negative rho (up, down):  1.065E-07 0.000E+00

[...]

     total energy              =   -4146.60132736 Ry
     estimated scf accuracy    <       0.00000008 Ry

     iteration # 31     ecut=    80.00 Ry     beta= 0.70
     Davidson diagonalization with overlap
     ethr =  2.43E-11,  avg # of iterations =  1.0

     Adding external electric field

     Computed dipole along edir(3) :
        Dipole               -0.5779 Ry au,         -1.4689 Debye
        Dipole field         -0.0005 Ry au,

        Potential amp.        0.0568 Ry
        Total length         60.4102 bohr

     End of self-consistent calculation

          k = 0.0500 0.0866 0.0000 (186449 PWs)   bands (ev):

   -37.2444 -37.2444 -37.2443 -37.2443 -37.2443 -37.2436 -37.2436 -37.2436
   -37.0547 -37.0546 -37.0545 -37.0544 -37.0528 -37.0528 -37.0527 -37.0526
[...]
   -15.9307 -15.9305 -15.9305 -15.9178 -15.9178 -15.9178 -15.9176 -15.9175
   -13.5737 -12.8698 -12.1740 -12.1740 -12.1237 -11.8374 -11.8374 -11.8188
   -11.5137 -11.1912 -11.1908 -11.1908  -8.0225  -7.8439  -7.8270  -7.8270
    -7.4975  -7.4455  -7.4455  -6.5325  -6.5325  -6.5139  -6.1818  -4.3805
    -4.3751  -4.3751  -4.0991  -3.7959  -3.7274  -3.7274  -3.3958  -3.2614
    -3.2614  -3.0509  -3.0402  -3.0402  -2.9580  -2.9580  -2.9183  -2.5699
    -2.4010  -2.2787  -2.2787  -2.2691  -2.1089  -1.9991  -1.8889  -1.7614
    -1.7132  -1.7132  -1.0130  -0.9577  -0.9577  -0.5042  -0.3930  -0.3203
    -0.1167   0.3659   0.3659   0.4766   0.6242   0.6242   0.7198   1.3627
     1.4894   1.4894   1.5637   1.6597   1.6781   1.6781   2.1905   2.3680
     2.6826   2.7286   2.7286   2.7652   3.0532   3.1474   3.1876   3.2962
     3.3796   3.4512

[...]

          k = 0.4500 0.2021 0.0000 (186681 PWs)   bands (ev):

   -37.2444 -37.2444 -37.2442 -37.2441 -37.2441 -37.2439 -37.2438 -37.2438
   -37.0546 -37.0546 -37.0545 -37.0545 -37.0528 -37.0527 -37.0527 -37.0527
   -36.9941 -36.9940 -36.9939 -36.9938 -36.7207 -36.7205 -36.7203 -36.7203
   -36.7093 -36.7093 -36.7092 -36.7091 -36.7090 -36.7090 -36.7090 -36.7089
   -36.6878 -36.6878 -36.6875 -36.6875 -36.6873 -36.6871 -36.6869 -36.6869
   -36.5954 -36.5954 -36.5952 -36.5951 -36.5949 -36.5947 -36.5945 -36.5945
   -36.5540 -36.5540 -36.5539 -36.5538 -36.5537 -36.5537 -36.5537 -36.5536
   -36.5501 -36.5500 -36.5498 -36.5497 -16.6502 -16.6498 -16.6475 -16.6465
   -16.6437 -16.6404 -16.6386 -16.6386 -16.5197 -16.5190 -16.5183 -16.5181
   -16.5094 -16.5091 -16.5069 -16.5057 -16.5057 -16.5047 -16.5042 -16.5034
   -16.3235 -16.3230 -16.3199 -16.3162 -16.2827 -16.2824 -16.2799 -16.2780
   -16.2621 -16.2575 -16.2538 -16.2534 -16.2211 -16.2208 -16.2207 -16.2184
   -16.2131 -16.2127 -16.2123 -16.2117 -16.0485 -16.0469 -16.0381 -16.0283
   -15.9822 -15.9797 -15.9763 -15.9742 -15.9733 -15.9715 -15.9658 -15.9655
   -15.9282 -15.9281 -15.9262 -15.9231 -15.9211 -15.9202 -15.9181 -15.9179
   -13.1829 -12.8792 -12.5308 -12.2907 -12.2821 -12.1038 -11.8659 -11.7716
   -11.3613 -11.2709 -11.1777 -11.1757  -7.7222  -7.7222  -7.6415  -7.5614
    -7.2649  -7.0736  -6.6457  -6.5309  -6.4912  -6.3338  -5.9381  -5.1378
    -4.7230  -4.5142  -4.4894  -4.4270  -4.2734  -4.1757  -4.1394  -4.0676
    -3.3329  -3.0764  -3.0681  -3.0139  -2.7745  -2.7478  -2.6943  -2.5838
    -2.5682  -2.4956  -2.4451  -2.4387  -2.3963  -2.2319  -2.0191  -1.7482
    -1.5863  -1.5463  -1.2348  -1.0887  -0.7507  -0.6117  -0.4717  -0.0713
     0.2336   0.2556   0.6451   0.9006   0.9250   1.0445   1.8336   1.8482
     1.8797   1.9197   2.0638   2.0809   2.1095   2.1320   2.3697   2.4787
     2.5341   2.6016   2.7981   3.0247   3.2636   3.2751   3.4733   3.4740
     3.7123   3.9743

     the Fermi energy is    -1.6900 ev

!    total energy              =   -4146.60132736 Ry
     estimated scf accuracy    <          3.1E-10 Ry
     smearing contrib. (-TS)   =      -0.00000043 Ry
     internal energy E=F+TS    =   -4146.60132693 Ry

     The total energy is F=E-TS. E is the sum of the following terms:
     one-electron contribution =  -50028.00224833 Ry
     hartree contribution      =   25089.94649207 Ry
     xc contribution           =    -964.54918876 Ry
     ewald contribution        =   21756.00334631 Ry
     electric field correction =       0.00027178 Ry

     convergence has been achieved in  31 iterations

     Forces acting on atoms (cartesian axes, Ry/au):

     atom    1 type  1   force =     0.00005039   -0.00002902   -0.01442403
     atom    2 type  1   force =    -0.00003650    0.00002087    0.00657333
     atom    3 type  1   force =    -0.00004419    0.00002557    0.02204556
     atom    4 type  1   force =    -0.00003644    0.00002114    0.00657338
     atom    5 type  1   force =    -0.00004401    0.00002552    0.02204544
     atom    6 type  1   force =     0.00005037   -0.00002903   -0.01442398
     atom    7 type  1   force =    -0.00003654    0.00002102    0.00657302
     atom    8 type  1   force =    -0.00004330    0.00002534    0.02204562
     atom    9 type  1   force =     0.00005078   -0.00002928   -0.01442406
     atom   10 type  1   force =    -0.00003667    0.00002134    0.00657308
     atom   11 type  1   force =    -0.00004379    0.00002535    0.02204576
     atom   12 type  1   force =     0.00005080   -0.00002927   -0.01442398
     atom   13 type  2   force =     0.00007893   -0.00004584   -0.00862822
     atom   14 type  2   force =    -0.00000779    0.00000445   -0.01412004
     atom   15 type  2   force =    -0.00004124    0.00002380    0.00855300
     atom   16 type  2   force =    -0.00004139    0.00002386    0.00855299
     atom   17 type  2   force =     0.00007886   -0.00004582   -0.00862789
     atom   18 type  2   force =    -0.00000763    0.00000445   -0.01412006
     atom   19 type  2   force =     0.00007908   -0.00004581   -0.00862810
     atom   20 type  2   force =    -0.00000758    0.00000446   -0.01411996
     atom   21 type  2   force =    -0.00004200    0.00002428    0.00855380
     atom   22 type  2   force =     0.00007948   -0.00004599   -0.00862819
     atom   23 type  2   force =    -0.00000775    0.00000433   -0.01412018
     atom   24 type  2   force =    -0.00004186    0.00002427    0.00855372
     The non-local contrib.  to forces
     atom    1 type  1   force =    -0.00031958    0.00018463    0.35523796
     atom    2 type  1   force =     0.00011352   -0.00006545   -0.08534985
     atom    3 type  1   force =     0.00001291   -0.00000716   -0.10442697
     atom    4 type  1   force =     0.00011335   -0.00006555   -0.08534959
     atom    5 type  1   force =     0.00001263   -0.00000751   -0.10442733
     atom    6 type  1   force =    -0.00031961    0.00018464    0.35523802
     atom    7 type  1   force =     0.00011295   -0.00006519   -0.08534950
     atom    8 type  1   force =     0.00001375   -0.00000798   -0.10442641
     atom    9 type  1   force =    -0.00031932    0.00018438    0.35523794
     atom   10 type  1   force =     0.00011298   -0.00006500   -0.08534995
     atom   11 type  1   force =     0.00001382   -0.00000775   -0.10442703
     atom   12 type  1   force =    -0.00031930    0.00018443    0.35523792
     atom   13 type  2   force =    -0.00025975    0.00015025   -0.04830397
     atom   14 type  2   force =    -0.00004003    0.00002278   -0.45526364
     atom   15 type  2   force =    -0.00003721    0.00002176    0.10974570
     atom   16 type  2   force =    -0.00003755    0.00002120    0.10974590
     atom   17 type  2   force =    -0.00025966    0.00015027   -0.04830406
     atom   18 type  2   force =    -0.00003941    0.00002307   -0.45526374
     atom   19 type  2   force =    -0.00025965    0.00014992   -0.04830426
     atom   20 type  2   force =    -0.00003923    0.00002296   -0.45526349
     atom   21 type  2   force =    -0.00003795    0.00002163    0.10974611
     atom   22 type  2   force =    -0.00026016    0.00015047   -0.04830387
     atom   23 type  2   force =    -0.00003990    0.00002265   -0.45526366
     atom   24 type  2   force =    -0.00003793    0.00002163    0.10974649
     The ionic contribution  to forces
     atom    1 type  1   force =     0.00000062   -0.00000103 -167.56823365
     atom    2 type  1   force =    -0.00001377   -0.00001957  -53.88644650
     atom    3 type  1   force =    -0.00001024    0.00001227   80.02791724
     atom    4 type  1   force =    -0.00000297    0.00001769  -53.88645316
     atom    5 type  1   force =     0.00000702   -0.00000737   80.02792777
     atom    6 type  1   force =     0.00000475   -0.00000180 -167.56823119
     atom    7 type  1   force =     0.00002264   -0.00003124  -53.88645601
     atom    8 type  1   force =     0.00001650    0.00002370   80.02792137
     atom    9 type  1   force =    -0.00000123    0.00000357 -167.56823276
     atom   10 type  1   force =     0.00001018    0.00000841  -53.88644934
     atom   11 type  1   force =    -0.00002147    0.00000292   80.02794471
     atom   12 type  1   force =    -0.00000448   -0.00000021 -167.56822758
     atom   13 type  2   force =    -0.00001144    0.00000988   53.88643765
     atom   14 type  2   force =     0.00000929    0.00000439  188.12656113
     atom   15 type  2   force =     0.00000361   -0.00001556 -100.58625196
     atom   16 type  2   force =     0.00000416    0.00001198 -100.58626457
     atom   17 type  2   force =    -0.00000886   -0.00002094   53.88645403
     atom   18 type  2   force =    -0.00001214   -0.00000315  188.12655812
     atom   19 type  2   force =     0.00000615    0.00001817   53.88645570
     atom   20 type  2   force =    -0.00001042   -0.00000688  188.12656606
     atom   21 type  2   force =    -0.00001530    0.00000675 -100.58623605
     atom   22 type  2   force =     0.00002291   -0.00003952   53.88643932
     atom   23 type  2   force =     0.00001303    0.00000656  188.12655919
     atom   24 type  2   force =    -0.00000852    0.00002098 -100.58625955
     The local contribution  to forces
     atom    1 type  1   force =     0.00038325   -0.00022066  167.18678416
     atom    2 type  1   force =    -0.00014259    0.00010941   53.96850879
     atom    3 type  1   force =    -0.00005563    0.00002713  -79.90797421
     atom    4 type  1   force =    -0.00015409    0.00007313   53.96851601
     atom    5 type  1   force =    -0.00007430    0.00004495  -79.90799213
     atom    6 type  1   force =     0.00037897   -0.00021993  167.18678186
     atom    7 type  1   force =    -0.00018155    0.00012173   53.96851898
     atom    8 type  1   force =    -0.00007915    0.00001237  -79.90797399
     atom    9 type  1   force =     0.00038579   -0.00022573  167.18678314
     atom   10 type  1   force =    -0.00016827    0.00008392   53.96851184
     atom   11 type  1   force =    -0.00004008    0.00003290  -79.90800298
     atom   12 type  1   force =     0.00038921   -0.00022179  167.18677795
     atom   13 type  2   force =     0.00036063   -0.00021045  -53.86189676
     atom   14 type  2   force =     0.00002089   -0.00002226 -187.70804055
     atom   15 type  2   force =    -0.00000948    0.00001930  100.46929112
     atom   16 type  2   force =    -0.00001097   -0.00000828  100.46930315
     atom   17 type  2   force =     0.00035968   -0.00018363  -53.86191510
     atom   18 type  2   force =     0.00004291   -0.00001423 -187.70803945
     atom   19 type  2   force =     0.00034080   -0.00021505  -53.86191666
     atom   20 type  2   force =     0.00004318   -0.00001181 -187.70804609
     atom   21 type  2   force =     0.00000632   -0.00000188  100.46927689
     atom   22 type  2   force =     0.00032328   -0.00016417  -53.86190214
     atom   23 type  2   force =     0.00001929   -0.00002545 -187.70804065
     atom   24 type  2   force =     0.00000079   -0.00001546  100.46929928
     The core correction contribution to forces
     atom    1 type  1   force =    -0.00001381    0.00000797   -0.00044967
     atom    2 type  1   force =     0.00000794   -0.00000458   -0.00238927
     atom    3 type  1   force =     0.00000723   -0.00000413   -0.00572544
     atom    4 type  1   force =     0.00000792   -0.00000459   -0.00238927
     atom    5 type  1   force =     0.00000717   -0.00000419   -0.00572543
     atom    6 type  1   force =    -0.00001381    0.00000796   -0.00044968
     atom    7 type  1   force =     0.00000789   -0.00000457   -0.00238926
     atom    8 type  1   force =     0.00000722   -0.00000418   -0.00572537
     atom    9 type  1   force =    -0.00001381    0.00000797   -0.00044964
     atom   10 type  1   force =     0.00000792   -0.00000455   -0.00238930
     atom   11 type  1   force =     0.00000726   -0.00000419   -0.00572546
     atom   12 type  1   force =    -0.00001381    0.00000798   -0.00044966
     atom   13 type  2   force =    -0.00000901    0.00000520    0.00099730
     atom   14 type  2   force =     0.00000042   -0.00000025    0.00849315
     atom   15 type  2   force =     0.00000310   -0.00000180    0.00163340
     atom   16 type  2   force =     0.00000310   -0.00000179    0.00163339
     atom   17 type  2   force =    -0.00000898    0.00000520    0.00099728
     atom   18 type  2   force =     0.00000042   -0.00000024    0.00849315
     atom   19 type  2   force =    -0.00000902    0.00000524    0.00099729
     atom   20 type  2   force =     0.00000045   -0.00000026    0.00849318
     atom   21 type  2   force =     0.00000309   -0.00000179    0.00163340
     atom   22 type  2   force =    -0.00000905    0.00000520    0.00099728
     atom   23 type  2   force =     0.00000045   -0.00000026    0.00849317
     atom   24 type  2   force =     0.00000310   -0.00000178    0.00163339
     The Hubbard contrib.    to forces
     atom    1 type  1   force =     0.00000000    0.00000000    0.00000000
     atom    2 type  1   force =     0.00000000    0.00000000    0.00000000
     atom    3 type  1   force =     0.00000000    0.00000000    0.00000000
     atom    4 type  1   force =     0.00000000    0.00000000    0.00000000
     atom    5 type  1   force =     0.00000000    0.00000000    0.00000000
     atom    6 type  1   force =     0.00000000    0.00000000    0.00000000
     atom    7 type  1   force =     0.00000000    0.00000000    0.00000000
     atom    8 type  1   force =     0.00000000    0.00000000    0.00000000
     atom    9 type  1   force =     0.00000000    0.00000000    0.00000000
     atom   10 type  1   force =     0.00000000    0.00000000    0.00000000
     atom   11 type  1   force =     0.00000000    0.00000000    0.00000000
     atom   12 type  1   force =     0.00000000    0.00000000    0.00000000
     atom   13 type  2   force =     0.00000000    0.00000000    0.00000000
     atom   14 type  2   force =     0.00000000    0.00000000    0.00000000
     atom   15 type  2   force =     0.00000000    0.00000000    0.00000000
     atom   16 type  2   force =     0.00000000    0.00000000    0.00000000
     atom   17 type  2   force =     0.00000000    0.00000000    0.00000000
     atom   18 type  2   force =     0.00000000    0.00000000    0.00000000
     atom   19 type  2   force =     0.00000000    0.00000000    0.00000000
     atom   20 type  2   force =     0.00000000    0.00000000    0.00000000
     atom   21 type  2   force =     0.00000000    0.00000000    0.00000000
     atom   22 type  2   force =     0.00000000    0.00000000    0.00000000
     atom   23 type  2   force =     0.00000000    0.00000000    0.00000000
     atom   24 type  2   force =     0.00000000    0.00000000    0.00000000
     The SCF correction term to forces
     atom    1 type  1   force =    -0.00000006    0.00000006    0.00001054
     atom    2 type  1   force =    -0.00000157    0.00000105    0.00002353
     atom    3 type  1   force =     0.00000157   -0.00000255    0.00002830
     atom    4 type  1   force =    -0.00000061    0.00000044    0.00002277
     atom    5 type  1   force =     0.00000351   -0.00000036    0.00003594
     atom    6 type  1   force =     0.00000011    0.00000010    0.00001037
     atom    7 type  1   force =     0.00000156    0.00000030    0.00002219
     atom    8 type  1   force =    -0.00000158    0.00000143    0.00002340
     atom    9 type  1   force =    -0.00000061    0.00000052    0.00001064
     atom   10 type  1   force =     0.00000054   -0.00000144    0.00002322
     atom   11 type  1   force =    -0.00000328    0.00000147    0.00002990
     atom   12 type  1   force =    -0.00000079    0.00000033    0.00001076
     atom   13 type  2   force =    -0.00000147   -0.00000074    0.00002988
     atom   14 type  2   force =     0.00000168   -0.00000022    0.00002218
     atom   15 type  2   force =    -0.00000123    0.00000009    0.00002706
     atom   16 type  2   force =    -0.00000009    0.00000074    0.00002744
     atom   17 type  2   force =    -0.00000329    0.00000328    0.00003229
     atom   18 type  2   force =     0.00000061   -0.00000101    0.00002418
     atom   19 type  2   force =     0.00000082   -0.00000410    0.00003214
     atom   20 type  2   force =    -0.00000153    0.00000044    0.00002270
     atom   21 type  2   force =     0.00000186   -0.00000044    0.00002576
     atom   22 type  2   force =     0.00000253    0.00000202    0.00003355
     atom   23 type  2   force =    -0.00000058    0.00000082    0.00002409
     atom   24 type  2   force =     0.00000075   -0.00000110    0.00002643

     Total force =     0.065856     Total SCF correction =     0.000124

     Writing all to output data dir ./temp/GaAs_111_0D0Ha.save/

     General routines

     Parallel routines

   This run was terminated on:  17:12: 8  20Mar2025

   JOB DONE.