     Program PWSCF v.7.2 starts on 20Mar2025 at 17:57:52

     Reading input from GaAs111_M0D001Ha.scf.in

     Current dimensions of program PWSCF are:
     Max number of different atomic species (ntypx) = 10
     Max number of k-points (npk) =  40000
     Max angular momentum in pseudopotentials (lmaxx) =  4
     Found identity + (  0.5000 -0.5000  0.0000) symmetry
     This is a supercell, fractional translations are disabled

     K-points division:     npool     =       8
     R & G space division:  proc/nbgrp/npool/nimage =      18
     Subspace diagonalization in iterative solution of the eigenvalue problem:
     one sub-group per band group will be used

     Using Slab Decomposition

     bravais-lattice index     =            0
     lattice parameter (alat)  =      15.3672  a.u.
     unit-cell volume          =   15443.3545 (a.u.)^3
     number of atoms/cell      =           24
     number of atomic types    =            2
     number of electrons       =       336.00
     number of Kohn-Sham states=          202
     kinetic-energy cutoff     =      80.0000  Ry
     charge density cutoff     =     320.0000  Ry
     scf convergence threshold =      1.0E-09
     mixing beta               =       0.7000
     number of iterations used =            8  plain     mixing
     Exchange-correlation= PBE
                           (   1   4   3   4   0   0   0)

     celldm(1)=  15.367226  celldm(2)=   0.000000  celldm(3)=   0.000000
     celldm(4)=   0.000000  celldm(5)=   0.000000  celldm(6)=   0.000000

     crystal axes: (cart. coord. in units of alat)
               a(1) = (   1.000000   0.000000   0.000000 )
               a(2) = (  -0.500000   0.866025   0.000000 )
               a(3) = (   0.000000   0.000000   4.913881 )

     reciprocal axes: (cart. coord. in units 2 pi/alat)
               b(1) = (  1.000000  0.577350 -0.000000 )
               b(2) = (  0.000000  1.154701  0.000000 )
               b(3) = (  0.000000 -0.000000  0.203505 )

     PseudoPot. # 1 for Ga read from file:
     ./Ga.upf
     MD5 check sum: 93d095ea82f116b4e2622455073fb9ee
     Pseudo is Norm-conserving + core correction, Zval = 13.0
     Generated using ONCVPSP code by D. R. Hamann
     Using radial grid of 1902 points,  6 beta functions with:
                l(1) =   0
                l(2) =   0
                l(3) =   1
                l(4) =   1
                l(5) =   2
                l(6) =   2

     PseudoPot. # 2 for As read from file:
     ./As.upf
     MD5 check sum: 280d9fd8ba68a23ae96e751fcede625c
     Pseudo is Norm-conserving + core correction, Zval = 15.0
     Generated using ONCVPSP code by D. R. Hamann
     Using radial grid of 1350 points,  6 beta functions with:
                l(1) =   0
                l(2) =   0
                l(3) =   1
                l(4) =   1
                l(5) =   2
                l(6) =   2

     atomic species   valence    mass     pseudopotential
        Ga            13.00    69.72000     Ga( 1.00)
        As            15.00    74.92000     As( 1.00)

     No symmetry found

   Cartesian axes

     site n.     atom                  positions (alat units)
         1           Ga  tau(   1) = (   0.0000000   0.0000000   1.8955990  )
         2           Ga  tau(   2) = (   0.0000000   0.5773504   2.3038472  )
         3           Ga  tau(   3) = (   0.5000000   0.2886751   2.7120955  )
         4           Ga  tau(   4) = (   0.7500000   0.1443376   2.3038472  )
         5           Ga  tau(   5) = (  -0.2500001   0.7216878   2.7120955  )
         6           Ga  tau(   6) = (   0.2499999   0.4330127   1.8955990  )
         7           Ga  tau(   7) = (   0.4999999   0.5773504   2.3038472  )
         8           Ga  tau(   8) = (  -0.0000001   0.2886751   2.7120955  )
         9           Ga  tau(   9) = (   0.5000000   0.0000000   1.8955990  )
        10           Ga  tau(  10) = (   0.2500000   0.1443376   2.3038472  )
        11           Ga  tau(  11) = (   0.2500000   0.7216878   2.7120955  )
        12           Ga  tau(  12) = (  -0.2500000   0.4330127   1.8955990  )
        13           As  tau(  13) = (   0.7500000   0.1443376   2.6100335  )
        14           As  tau(  14) = (  -0.2500001   0.7216878   3.0182815  )
        15           As  tau(  15) = (   0.2499999   0.4330127   2.2017852  )
        16           As  tau(  16) = (   0.0000000   0.0000000   2.2017852  )
        17           As  tau(  17) = (   0.0000000   0.5773504   2.6100335  )
        18           As  tau(  18) = (   0.5000000   0.2886751   3.0182815  )
        19           As  tau(  19) = (   0.2500000   0.1443376   2.6100335  )
        20           As  tau(  20) = (   0.2500000   0.7216878   3.0182815  )
        21           As  tau(  21) = (  -0.2500000   0.4330127   2.2017852  )
        22           As  tau(  22) = (   0.4999999   0.5773504   2.6100335  )
        23           As  tau(  23) = (  -0.0000001   0.2886751   3.0182815  )
        24           As  tau(  24) = (   0.5000000   0.0000000   2.2017852  )

     number of k points=    50  Fermi-Dirac smearing, width (Ry)=  0.0000
                       cart. coord. in units 2pi/alat
        k(    1) = (   0.0500000   0.0866025   0.0000000), wk =   0.0400000
        k(    2) = (   0.0500000   0.2020726   0.0000000), wk =   0.0400000
        k(    3) = (   0.0500000   0.3175426   0.0000000), wk =   0.0400000
        k(    4) = (   0.0500000   0.4330127   0.0000000), wk =   0.0400000
        k(    5) = (   0.0500000   0.5484828   0.0000000), wk =   0.0400000
        k(    6) = (   0.0500000  -0.4907477   0.0000000), wk =   0.0400000
        k(    7) = (   0.0500000  -0.3752777   0.0000000), wk =   0.0400000
        k(    8) = (   0.0500000  -0.2598076   0.0000000), wk =   0.0400000
        k(    9) = (   0.0500000  -0.1443376   0.0000000), wk =   0.0400000
        k(   10) = (   0.0500000  -0.0288675   0.0000000), wk =   0.0400000
        k(   11) = (   0.1500000   0.1443376   0.0000000), wk =   0.0400000
        k(   12) = (   0.1500000   0.2598076   0.0000000), wk =   0.0400000
        k(   13) = (   0.1500000   0.3752777   0.0000000), wk =   0.0400000
        k(   14) = (   0.1500000   0.4907477   0.0000000), wk =   0.0400000
        k(   15) = (   0.1500000   0.6062178   0.0000000), wk =   0.0400000
        k(   16) = (   0.1500000  -0.4330127   0.0000000), wk =   0.0400000
        k(   17) = (   0.1500000  -0.3175426   0.0000000), wk =   0.0400000
        k(   18) = (   0.1500000  -0.2020726   0.0000000), wk =   0.0400000
        k(   19) = (   0.1500000  -0.0866025   0.0000000), wk =   0.0400000
        k(   20) = (   0.1500000   0.0288675   0.0000000), wk =   0.0400000
        k(   21) = (   0.2500000   0.2020726   0.0000000), wk =   0.0400000
        k(   22) = (   0.2500000   0.3175426   0.0000000), wk =   0.0400000
        k(   23) = (   0.2500000   0.4330127   0.0000000), wk =   0.0400000
        k(   24) = (   0.2500000   0.5484828   0.0000000), wk =   0.0400000
        k(   25) = (   0.2500000   0.6639528   0.0000000), wk =   0.0400000
        k(   26) = (   0.2500000  -0.3752777   0.0000000), wk =   0.0400000
        k(   27) = (   0.2500000  -0.2598076   0.0000000), wk =   0.0400000
        k(   28) = (   0.2500000  -0.1443376   0.0000000), wk =   0.0400000
        k(   29) = (   0.2500000  -0.0288675   0.0000000), wk =   0.0400000
        k(   30) = (   0.2500000   0.0866025   0.0000000), wk =   0.0400000
        k(   31) = (   0.3500000   0.2598076   0.0000000), wk =   0.0400000
        k(   32) = (   0.3500000   0.3752777   0.0000000), wk =   0.0400000
        k(   33) = (   0.3500000   0.4907477   0.0000000), wk =   0.0400000
        k(   34) = (   0.3500000   0.6062178   0.0000000), wk =   0.0400000
        k(   35) = (   0.3500000   0.7216878   0.0000000), wk =   0.0400000
        k(   36) = (   0.3500000  -0.3175426   0.0000000), wk =   0.0400000
        k(   37) = (   0.3500000  -0.2020726   0.0000000), wk =   0.0400000
        k(   38) = (   0.3500000  -0.0866025   0.0000000), wk =   0.0400000
        k(   39) = (   0.3500000   0.0288675   0.0000000), wk =   0.0400000
        k(   40) = (   0.3500000   0.1443376   0.0000000), wk =   0.0400000
        k(   41) = (   0.4500000   0.3175426   0.0000000), wk =   0.0400000
        k(   42) = (   0.4500000   0.4330127   0.0000000), wk =   0.0400000
        k(   43) = (   0.4500000   0.5484828   0.0000000), wk =   0.0400000
        k(   44) = (   0.4500000   0.6639528   0.0000000), wk =   0.0400000
        k(   45) = (   0.4500000   0.7794229   0.0000000), wk =   0.0400000
        k(   46) = (   0.4500000  -0.2598076   0.0000000), wk =   0.0400000
        k(   47) = (   0.4500000  -0.1443376   0.0000000), wk =   0.0400000
        k(   48) = (   0.4500000  -0.0288675   0.0000000), wk =   0.0400000
        k(   49) = (   0.4500000   0.0866025   0.0000000), wk =   0.0400000
        k(   50) = (   0.4500000   0.2020726   0.0000000), wk =   0.0400000

     Initial potential from superposition of free atoms

     starting charge     335.9650, renormalised to     336.0000

     negative rho (up, down):  1.366E-04 0.000E+00

     Adding external electric field

     Computed dipole along edir(3) :
        Dipole               -0.0747 Ry au,         -0.1897 Debye
        Dipole field         -0.0001 Ry au,

        E field amplitude [Ha a.u.]: -1.0000E-03
        Potential amp.       -0.1135 Ry
        Total length         60.4102 bohr

     Starting wfcs are  216 atomic wfcs

     Self-consistent Calculation

     iteration #  1     ecut=    80.00 Ry     beta= 0.70
     Davidson diagonalization with overlap
     ethr =  1.00E-02,  avg # of iterations =  3.0

     Threshold (ethr) on eigenvalues was too large:
     Diagonalizing with lowered threshold

     Davidson diagonalization with overlap
     ethr =  6.07E-04,  avg # of iterations =  2.0

[...]

     total energy              =   -4145.27405861 Ry
     estimated scf accuracy    <       2.02637765 Ry

[...]

     iteration #  8     ecut=    80.00 Ry     beta= 0.70
     Davidson diagonalization with overlap
     c_bands:  1 eigenvalues not converged
     ethr =  3.00E-05,  avg # of iterations =  9.4

[...]

     iteration # 18     ecut=    80.00 Ry     beta= 0.70
     Davidson diagonalization with overlap
     c_bands:  1 eigenvalues not converged
     c_bands:  1 eigenvalues not converged
     ethr =  2.98E-08,  avg # of iterations = 13.0

[...]

     negative rho (up, down):  1.044E-08 0.000E+00

[...]

     total energy              =   -4146.60284442 Ry
     estimated scf accuracy    <          1.4E-09 Ry

     iteration # 30     ecut=    80.00 Ry     beta= 0.70
     Davidson diagonalization with overlap
     ethr =  4.05E-13,  avg # of iterations =  1.0

     Adding external electric field

     Computed dipole along edir(3) :
        Dipole               -0.9388 Ry au,         -2.3862 Debye
        Dipole field         -0.0008 Ry au,

        E field amplitude [Ha a.u.]: -1.0000E-03
        Potential amp.       -0.0285 Ry
        Total length         60.4102 bohr

     End of self-consistent calculation

          k = 0.0500 0.0866 0.0000 (186449 PWs)   bands (ev):

[...]
   -15.9287 -15.9286 -15.9286 -15.9159 -15.9158 -15.9158 -15.9157 -15.9155
   -13.5708 -12.8668 -12.1711 -12.1711 -12.1208 -11.8344 -11.8344 -11.8158
   -11.5091 -11.1862 -11.1858 -11.1858  -8.0189  -7.8411  -7.8242  -7.8242
    -7.4951  -7.4431  -7.4431  -6.5290  -6.5290  -6.5104  -6.1786  -4.3776
    -4.3723  -4.3723  -4.0953  -3.7931  -3.7245  -3.7245  -3.3928  -3.2585
    -3.2585  -3.0482  -3.0376  -3.0376  -2.9548  -2.9548  -2.9150  -2.5669
    -2.3981  -2.2740  -2.2740  -2.2644  -2.1044  -1.9973  -1.8860  -1.7560
    -1.7079  -1.7079  -1.0087  -0.9530  -0.9530  -0.4998  -0.3878  -0.3170
    -0.1145   0.3692   0.3692   0.4799   0.6266   0.6267   0.7222   1.3667
     1.4935   1.4935   1.5971   1.6638   1.6821   1.6821   2.1921   2.3712
     2.6982   2.7336   2.7336   2.7700   3.0916   3.1901   3.2990   3.3304
     3.3872   3.4110

[...]

          k = 0.4500 0.2021 0.0000 (186681 PWs)   bands (ev):

   -37.2361 -37.2361 -37.2359 -37.2359 -37.2358 -37.2356 -37.2355 -37.2355
   -37.0469 -37.0469 -37.0468 -37.0468 -37.0457 -37.0456 -37.0456 -37.0456
   -36.9870 -36.9869 -36.9868 -36.9867 -36.7188 -36.7187 -36.7185 -36.7184
   -36.7073 -36.7073 -36.7072 -36.7071 -36.7071 -36.7070 -36.7070 -36.7070
   -36.6856 -36.6856 -36.6853 -36.6853 -36.6851 -36.6849 -36.6847 -36.6847
   -36.5914 -36.5914 -36.5912 -36.5912 -36.5910 -36.5907 -36.5905 -36.5905
   -36.5497 -36.5497 -36.5496 -36.5496 -36.5495 -36.5494 -36.5494 -36.5494
   -36.5458 -36.5456 -36.5454 -36.5454 -16.6481 -16.6477 -16.6454 -16.6444
   -16.6416 -16.6383 -16.6366 -16.6365 -16.5170 -16.5163 -16.5156 -16.5154
   -16.5066 -16.5064 -16.5044 -16.5032 -16.5030 -16.5023 -16.5016 -16.5009
   -16.3208 -16.3203 -16.3173 -16.3136 -16.2802 -16.2799 -16.2773 -16.2754
   -16.2594 -16.2549 -16.2511 -16.2508 -16.2185 -16.2181 -16.2181 -16.2158
   -16.2104 -16.2101 -16.2096 -16.2091 -16.0465 -16.0449 -16.0361 -16.0263
   -15.9802 -15.9778 -15.9743 -15.9722 -15.9714 -15.9696 -15.9639 -15.9635
   -15.9262 -15.9262 -15.9243 -15.9212 -15.9192 -15.9183 -15.9161 -15.9160
   -13.1800 -12.8763 -12.5277 -12.2878 -12.2791 -12.1009 -11.8628 -11.7686
   -11.3566 -11.2662 -11.1729 -11.1707  -7.7194  -7.7189  -7.6387  -7.5583
    -7.2625  -7.0711  -6.6425  -6.5273  -6.4877  -6.3307  -5.9352  -5.1348
    -4.7201  -4.5113  -4.4864  -4.4240  -4.2705  -4.1727  -4.1366  -4.0647
    -3.3300  -3.0727  -3.0644  -3.0108  -2.7729  -2.7461  -2.6914  -2.5791
    -2.5652  -2.4927  -2.4391  -2.4359  -2.3917  -2.2293  -2.0150  -1.7440
    -1.5818  -1.5423  -1.2295  -1.0836  -0.7459  -0.6068  -0.4674  -0.0663
     0.2367   0.2603   0.6491   0.9031   0.9308   1.0467   1.8371   1.8523
     1.9023   1.9224   2.0676   2.0845   2.1141   2.1473   2.3760   2.4859
     2.5483   2.6093   2.8073   3.0307   3.2706   3.2950   3.4826   3.5289
     3.6941   3.8786

     the Fermi energy is    -1.6849 ev

!    total energy              =   -4146.60284442 Ry
     estimated scf accuracy    <          6.8E-11 Ry
     smearing contrib. (-TS)   =      -0.00000048 Ry
     internal energy E=F+TS    =   -4146.60284394 Ry

     The total energy is F=E-TS. E is the sum of the following terms:
     one-electron contribution =  -50028.16565008 Ry
     hartree contribution      =   25090.11210448 Ry
     xc contribution           =    -964.55148420 Ry
     ewald contribution        =   21756.00334631 Ry
     electric field correction =      -0.00116045 Ry

     convergence has been achieved in  30 iterations

     Forces acting on atoms (cartesian axes, Ry/au):

     atom    1 type  1   force =     0.00001052   -0.00000612   -0.01461889
     atom    2 type  1   force =    -0.00004346    0.00002480    0.00654232
     atom    3 type  1   force =    -0.00003787    0.00002196    0.02203959
     atom    4 type  1   force =    -0.00004332    0.00002512    0.00654229
     atom    5 type  1   force =    -0.00003764    0.00002182    0.02203996
     atom    6 type  1   force =     0.00001049   -0.00000617   -0.01461891
     atom    7 type  1   force =    -0.00004331    0.00002488    0.00654230
     atom    8 type  1   force =    -0.00003703    0.00002175    0.02203996
     atom    9 type  1   force =     0.00001032   -0.00000601   -0.01461932
     atom   10 type  1   force =    -0.00004354    0.00002521    0.00654236
     atom   11 type  1   force =    -0.00003734    0.00002166    0.02203942
     atom   12 type  1   force =     0.00001032   -0.00000603   -0.01461929
     atom   13 type  2   force =     0.00005799   -0.00003334   -0.00853844
     atom   14 type  2   force =     0.00000368   -0.00000217   -0.01418727
     atom   15 type  2   force =     0.00000916   -0.00000520    0.00876263
     atom   16 type  2   force =     0.00000906   -0.00000512    0.00876254
     atom   17 type  2   force =     0.00005752   -0.00003392   -0.00853819
     atom   18 type  2   force =     0.00000386   -0.00000210   -0.01418752
     atom   19 type  2   force =     0.00005707   -0.00003309   -0.00853813
     atom   20 type  2   force =     0.00000420   -0.00000231   -0.01418730
     atom   21 type  2   force =     0.00000869   -0.00000489    0.00876293
     atom   22 type  2   force =     0.00005784   -0.00003349   -0.00853846
     atom   23 type  2   force =     0.00000401   -0.00000236   -0.01418720
     atom   24 type  2   force =     0.00000878   -0.00000488    0.00876263
     The non-local contrib.  to forces
     atom    1 type  1   force =    -0.00008160    0.00004721    0.35551751
     atom    2 type  1   force =     0.00013595   -0.00007881   -0.08551066
     atom    3 type  1   force =     0.00001016   -0.00000557   -0.10379169
     atom    4 type  1   force =     0.00013591   -0.00007876   -0.08551060
     atom    5 type  1   force =     0.00001012   -0.00000605   -0.10379157
     atom    6 type  1   force =    -0.00008160    0.00004722    0.35551757
     atom    7 type  1   force =     0.00013655   -0.00007913   -0.08551084
     atom    8 type  1   force =     0.00000945   -0.00000534   -0.10379174
     atom    9 type  1   force =    -0.00008156    0.00004710    0.35551758
     atom   10 type  1   force =     0.00013643   -0.00007889   -0.08551125
     atom   11 type  1   force =     0.00000955   -0.00000540   -0.10379223
     atom   12 type  1   force =    -0.00008156    0.00004713    0.35551758
     atom   13 type  2   force =    -0.00019005    0.00011019   -0.04816016
     atom   14 type  2   force =    -0.00004167    0.00002381   -0.45340202
     atom   15 type  2   force =    -0.00005739    0.00003368    0.11093236
     atom   16 type  2   force =    -0.00005770    0.00003299    0.11093257
     atom   17 type  2   force =    -0.00019042    0.00011000   -0.04816031
     atom   18 type  2   force =    -0.00004115    0.00002414   -0.45340223
     atom   19 type  2   force =    -0.00019003    0.00010948   -0.04816039
     atom   20 type  2   force =    -0.00004116    0.00002408   -0.45340217
     atom   21 type  2   force =    -0.00005753    0.00003317    0.11093289
     atom   22 type  2   force =    -0.00019012    0.00011019   -0.04816020
     atom   23 type  2   force =    -0.00004177    0.00002390   -0.45340192
     atom   24 type  2   force =    -0.00005753    0.00003304    0.11093323
     The ionic contribution  to forces
     atom    1 type  1   force =     0.00000062   -0.00000103 -167.56823365
     atom    2 type  1   force =    -0.00001377   -0.00001957  -53.88644650
     atom    3 type  1   force =    -0.00001024    0.00001227   80.02791724
     atom    4 type  1   force =    -0.00000297    0.00001769  -53.88645316
     atom    5 type  1   force =     0.00000702   -0.00000737   80.02792777
     atom    6 type  1   force =     0.00000475   -0.00000180 -167.56823119
     atom    7 type  1   force =     0.00002264   -0.00003124  -53.88645601
     atom    8 type  1   force =     0.00001650    0.00002370   80.02792137
     atom    9 type  1   force =    -0.00000123    0.00000357 -167.56823276
     atom   10 type  1   force =     0.00001018    0.00000841  -53.88644934
     atom   11 type  1   force =    -0.00002147    0.00000292   80.02794471
     atom   12 type  1   force =    -0.00000448   -0.00000021 -167.56822758
     atom   13 type  2   force =    -0.00001144    0.00000988   53.88643765
     atom   14 type  2   force =     0.00000929    0.00000439  188.12656113
     atom   15 type  2   force =     0.00000361   -0.00001556 -100.58625196
     atom   16 type  2   force =     0.00000416    0.00001198 -100.58626457
     atom   17 type  2   force =    -0.00000886   -0.00002094   53.88645403
     atom   18 type  2   force =    -0.00001214   -0.00000315  188.12655812
     atom   19 type  2   force =     0.00000615    0.00001817   53.88645570
     atom   20 type  2   force =    -0.00001042   -0.00000688  188.12656606
     atom   21 type  2   force =    -0.00001530    0.00000675 -100.58623605
     atom   22 type  2   force =     0.00002291   -0.00003952   53.88643932
     atom   23 type  2   force =     0.00001303    0.00000656  188.12655919
     atom   24 type  2   force =    -0.00000852    0.00002098 -100.58625955
     The local contribution  to forces
     atom    1 type  1   force =     0.00009320   -0.00005384  167.20465817
     atom    2 type  1   force =    -0.00017738    0.00013006   53.98702025
     atom    3 type  1   force =    -0.00003939    0.00001697  -79.89024103
     atom    4 type  1   force =    -0.00018901    0.00009290   53.98702714
     atom    5 type  1   force =    -0.00005684    0.00003563  -79.89025721
     atom    6 type  1   force =     0.00008938   -0.00005240  167.20465612
     atom    7 type  1   force =    -0.00020989    0.00013845   53.98702854
     atom    8 type  1   force =    -0.00007408    0.00001004  -79.89025482
     atom    9 type  1   force =     0.00009722   -0.00005927  167.20465919
     atom   10 type  1   force =    -0.00019654    0.00009991   53.98702200
     atom   11 type  1   force =    -0.00003609    0.00003012  -79.89027132
     atom   12 type  1   force =     0.00010015   -0.00005515  167.20465453
     atom   13 type  2   force =     0.00025943   -0.00015637  -53.84072331
     atom   14 type  2   force =     0.00003854   -0.00003200 -187.68874238
     atom   15 type  2   force =     0.00006375   -0.00002230  100.48952609
     atom   16 type  2   force =     0.00006213   -0.00005109  100.48953876
     atom   17 type  2   force =     0.00026063   -0.00012255  -53.84074084
     atom   18 type  2   force =     0.00005988   -0.00002434 -187.68874039
     atom   19 type  2   force =     0.00025452   -0.00016696  -53.84074038
     atom   20 type  2   force =     0.00005472   -0.00001888 -187.68874740
     atom   21 type  2   force =     0.00008356   -0.00004596  100.48951490
     atom   22 type  2   force =     0.00023475   -0.00011161  -53.84072315
     atom   23 type  2   force =     0.00003132   -0.00003195 -187.68873802
     atom   24 type  2   force =     0.00007813   -0.00006066  100.48953846
     The core correction contribution to forces
     atom    1 type  1   force =    -0.00000316    0.00000181   -0.00043404
     atom    2 type  1   force =     0.00000941   -0.00000542   -0.00238521
     atom    3 type  1   force =     0.00000646   -0.00000371   -0.00570452
     atom    4 type  1   force =     0.00000938   -0.00000544   -0.00238520
     atom    5 type  1   force =     0.00000642   -0.00000374   -0.00570455
     atom    6 type  1   force =    -0.00000315    0.00000183   -0.00043403
     atom    7 type  1   force =     0.00000952   -0.00000552   -0.00238523
     atom    8 type  1   force =     0.00000621   -0.00000359   -0.00570453
     atom    9 type  1   force =    -0.00000307    0.00000176   -0.00043390
     atom   10 type  1   force =     0.00000955   -0.00000551   -0.00238524
     atom   11 type  1   force =     0.00000623   -0.00000360   -0.00570448
     atom   12 type  1   force =    -0.00000308    0.00000178   -0.00043390
     atom   13 type  2   force =    -0.00000681    0.00000390    0.00098825
     atom   14 type  2   force =    -0.00000056    0.00000033    0.00846761
     atom   15 type  2   force =    -0.00000154    0.00000089    0.00162964
     atom   16 type  2   force =    -0.00000155    0.00000089    0.00162964
     atom   17 type  2   force =    -0.00000677    0.00000395    0.00098825
     atom   18 type  2   force =    -0.00000057    0.00000033    0.00846763
     atom   19 type  2   force =    -0.00000666    0.00000385    0.00098826
     atom   20 type  2   force =    -0.00000064    0.00000037    0.00846761
     atom   21 type  2   force =    -0.00000153    0.00000088    0.00162973
     atom   22 type  2   force =    -0.00000669    0.00000385    0.00098826
     atom   23 type  2   force =    -0.00000063    0.00000037    0.00846764
     atom   24 type  2   force =    -0.00000152    0.00000088    0.00162974
     The Hubbard contrib.    to forces
     atom    1 type  1   force =     0.00000000    0.00000000    0.00000000
     atom    2 type  1   force =     0.00000000    0.00000000    0.00000000
     atom    3 type  1   force =     0.00000000    0.00000000    0.00000000
     atom    4 type  1   force =     0.00000000    0.00000000    0.00000000
     atom    5 type  1   force =     0.00000000    0.00000000    0.00000000
     atom    6 type  1   force =     0.00000000    0.00000000    0.00000000
     atom    7 type  1   force =     0.00000000    0.00000000    0.00000000
     atom    8 type  1   force =     0.00000000    0.00000000    0.00000000
     atom    9 type  1   force =     0.00000000    0.00000000    0.00000000
     atom   10 type  1   force =     0.00000000    0.00000000    0.00000000
     atom   11 type  1   force =     0.00000000    0.00000000    0.00000000
     atom   12 type  1   force =     0.00000000    0.00000000    0.00000000
     atom   13 type  2   force =     0.00000000    0.00000000    0.00000000
     atom   14 type  2   force =     0.00000000    0.00000000    0.00000000
     atom   15 type  2   force =     0.00000000    0.00000000    0.00000000
     atom   16 type  2   force =     0.00000000    0.00000000    0.00000000
     atom   17 type  2   force =     0.00000000    0.00000000    0.00000000
     atom   18 type  2   force =     0.00000000    0.00000000    0.00000000
     atom   19 type  2   force =     0.00000000    0.00000000    0.00000000
     atom   20 type  2   force =     0.00000000    0.00000000    0.00000000
     atom   21 type  2   force =     0.00000000    0.00000000    0.00000000
     atom   22 type  2   force =     0.00000000    0.00000000    0.00000000
     atom   23 type  2   force =     0.00000000    0.00000000    0.00000000
     atom   24 type  2   force =     0.00000000    0.00000000    0.00000000
     The SCF correction term to forces
     atom    1 type  1   force =     0.00000145   -0.00000028    0.00001189
     atom    2 type  1   force =     0.00000232   -0.00000146    0.00000322
     atom    3 type  1   force =    -0.00000486    0.00000199   -0.00000163
     atom    4 type  1   force =     0.00000336   -0.00000127    0.00000289
     atom    5 type  1   force =    -0.00000438    0.00000335    0.00000431
     atom    6 type  1   force =     0.00000111   -0.00000102    0.00001141
     atom    7 type  1   force =    -0.00000216    0.00000231    0.00000463
     atom    8 type  1   force =     0.00000488   -0.00000306    0.00000846
     atom    9 type  1   force =    -0.00000105    0.00000082    0.00000936
     atom   10 type  1   force =    -0.00000317    0.00000128    0.00000498
     atom   11 type  1   force =     0.00000444   -0.00000238    0.00000153
     atom   12 type  1   force =    -0.00000072    0.00000043    0.00000886
     atom   13 type  2   force =     0.00000685   -0.00000094    0.00000223
     atom   14 type  2   force =    -0.00000194    0.00000129    0.00001149
     atom   15 type  2   force =     0.00000072   -0.00000191    0.00000961
     atom   16 type  2   force =     0.00000201    0.00000011    0.00000924
     atom   17 type  2   force =     0.00000293   -0.00000437    0.00000378
     atom   18 type  2   force =    -0.00000219    0.00000091    0.00001244
     atom   19 type  2   force =    -0.00000693    0.00000237    0.00000179
     atom   20 type  2   force =     0.00000169   -0.00000100    0.00001169
     atom   21 type  2   force =    -0.00000054    0.00000026    0.00000456
     atom   22 type  2   force =    -0.00000302    0.00000358    0.00000042
     atom   23 type  2   force =     0.00000205   -0.00000123    0.00000900
     atom   24 type  2   force =    -0.00000181    0.00000087    0.00000386

     Total force =     0.066129     Total SCF correction =     0.000041

     Writing all to output data dir ./temp/GaAs_111_M0D001Ha.save/

     General routines

     Parallel routines

   This run was terminated on:  18:14:33  20Mar2025

   JOB DONE.