     Program PWSCF v.7.2 starts on 20Mar2025 at 17:41: 8

     Reading input from GaAs111_0D003Ha.scf.in

     Current dimensions of program PWSCF are:
     Max number of different atomic species (ntypx) = 10
     Max number of k-points (npk) =  40000
     Max angular momentum in pseudopotentials (lmaxx) =  4
     Found identity + (  0.5000 -0.5000  0.0000) symmetry
     This is a supercell, fractional translations are disabled

     K-points division:     npool     =       8
     R & G space division:  proc/nbgrp/npool/nimage =      18
     Subspace diagonalization in iterative solution of the eigenvalue problem:
     one sub-group per band group will be used

     Using Slab Decomposition

     bravais-lattice index     =            0
     lattice parameter (alat)  =      15.3672  a.u.
     unit-cell volume          =   15443.3545 (a.u.)^3
     number of atoms/cell      =           24
     number of atomic types    =            2
     number of electrons       =       336.00
     number of Kohn-Sham states=          202
     kinetic-energy cutoff     =      80.0000  Ry
     charge density cutoff     =     320.0000  Ry
     scf convergence threshold =      1.0E-09
     mixing beta               =       0.7000
     number of iterations used =            8  plain     mixing
     Exchange-correlation= PBE
                           (   1   4   3   4   0   0   0)

     celldm(1)=  15.367226  celldm(2)=   0.000000  celldm(3)=   0.000000
     celldm(4)=   0.000000  celldm(5)=   0.000000  celldm(6)=   0.000000

     crystal axes: (cart. coord. in units of alat)
               a(1) = (   1.000000   0.000000   0.000000 )
               a(2) = (  -0.500000   0.866025   0.000000 )
               a(3) = (   0.000000   0.000000   4.913881 )

     reciprocal axes: (cart. coord. in units 2 pi/alat)
               b(1) = (  1.000000  0.577350 -0.000000 )
               b(2) = (  0.000000  1.154701  0.000000 )
               b(3) = (  0.000000 -0.000000  0.203505 )

     PseudoPot. # 1 for Ga read from file:
     ./Ga.upf
     MD5 check sum: 93d095ea82f116b4e2622455073fb9ee
     Pseudo is Norm-conserving + core correction, Zval = 13.0
     Generated using ONCVPSP code by D. R. Hamann
     Using radial grid of 1902 points,  6 beta functions with:
                l(1) =   0
                l(2) =   0
                l(3) =   1
                l(4) =   1
                l(5) =   2
                l(6) =   2

     PseudoPot. # 2 for As read from file:
     ./As.upf
     MD5 check sum: 280d9fd8ba68a23ae96e751fcede625c
     Pseudo is Norm-conserving + core correction, Zval = 15.0
     Generated using ONCVPSP code by D. R. Hamann
     Using radial grid of 1350 points,  6 beta functions with:
                l(1) =   0
                l(2) =   0
                l(3) =   1
                l(4) =   1
                l(5) =   2
                l(6) =   2

     atomic species   valence    mass     pseudopotential
        Ga            13.00    69.72000     Ga( 1.00)
        As            15.00    74.92000     As( 1.00)

     No symmetry found

   Cartesian axes

     site n.     atom                  positions (alat units)
         1           Ga  tau(   1) = (   0.0000000   0.0000000   1.8955990  )
         2           Ga  tau(   2) = (   0.0000000   0.5773504   2.3038472  )
         3           Ga  tau(   3) = (   0.5000000   0.2886751   2.7120955  )
         4           Ga  tau(   4) = (   0.7500000   0.1443376   2.3038472  )
         5           Ga  tau(   5) = (  -0.2500001   0.7216878   2.7120955  )
         6           Ga  tau(   6) = (   0.2499999   0.4330127   1.8955990  )
         7           Ga  tau(   7) = (   0.4999999   0.5773504   2.3038472  )
         8           Ga  tau(   8) = (  -0.0000001   0.2886751   2.7120955  )
         9           Ga  tau(   9) = (   0.5000000   0.0000000   1.8955990  )
        10           Ga  tau(  10) = (   0.2500000   0.1443376   2.3038472  )
        11           Ga  tau(  11) = (   0.2500000   0.7216878   2.7120955  )
        12           Ga  tau(  12) = (  -0.2500000   0.4330127   1.8955990  )
        13           As  tau(  13) = (   0.7500000   0.1443376   2.6100335  )
        14           As  tau(  14) = (  -0.2500001   0.7216878   3.0182815  )
        15           As  tau(  15) = (   0.2499999   0.4330127   2.2017852  )
        16           As  tau(  16) = (   0.0000000   0.0000000   2.2017852  )
        17           As  tau(  17) = (   0.0000000   0.5773504   2.6100335  )
        18           As  tau(  18) = (   0.5000000   0.2886751   3.0182815  )
        19           As  tau(  19) = (   0.2500000   0.1443376   2.6100335  )
        20           As  tau(  20) = (   0.2500000   0.7216878   3.0182815  )
        21           As  tau(  21) = (  -0.2500000   0.4330127   2.2017852  )
        22           As  tau(  22) = (   0.4999999   0.5773504   2.6100335  )
        23           As  tau(  23) = (  -0.0000001   0.2886751   3.0182815  )
        24           As  tau(  24) = (   0.5000000   0.0000000   2.2017852  )

     number of k points=    50  Fermi-Dirac smearing, width (Ry)=  0.0000
                       cart. coord. in units 2pi/alat
        k(    1) = (   0.0500000   0.0866025   0.0000000), wk =   0.0400000
        k(    2) = (   0.0500000   0.2020726   0.0000000), wk =   0.0400000
        k(    3) = (   0.0500000   0.3175426   0.0000000), wk =   0.0400000
        k(    4) = (   0.0500000   0.4330127   0.0000000), wk =   0.0400000
        k(    5) = (   0.0500000   0.5484828   0.0000000), wk =   0.0400000
        k(    6) = (   0.0500000  -0.4907477   0.0000000), wk =   0.0400000
        k(    7) = (   0.0500000  -0.3752777   0.0000000), wk =   0.0400000
        k(    8) = (   0.0500000  -0.2598076   0.0000000), wk =   0.0400000
        k(    9) = (   0.0500000  -0.1443376   0.0000000), wk =   0.0400000
        k(   10) = (   0.0500000  -0.0288675   0.0000000), wk =   0.0400000
        k(   11) = (   0.1500000   0.1443376   0.0000000), wk =   0.0400000
        k(   12) = (   0.1500000   0.2598076   0.0000000), wk =   0.0400000
        k(   13) = (   0.1500000   0.3752777   0.0000000), wk =   0.0400000
        k(   14) = (   0.1500000   0.4907477   0.0000000), wk =   0.0400000
        k(   15) = (   0.1500000   0.6062178   0.0000000), wk =   0.0400000
        k(   16) = (   0.1500000  -0.4330127   0.0000000), wk =   0.0400000
        k(   17) = (   0.1500000  -0.3175426   0.0000000), wk =   0.0400000
        k(   18) = (   0.1500000  -0.2020726   0.0000000), wk =   0.0400000
        k(   19) = (   0.1500000  -0.0866025   0.0000000), wk =   0.0400000
        k(   20) = (   0.1500000   0.0288675   0.0000000), wk =   0.0400000
        k(   21) = (   0.2500000   0.2020726   0.0000000), wk =   0.0400000
        k(   22) = (   0.2500000   0.3175426   0.0000000), wk =   0.0400000
        k(   23) = (   0.2500000   0.4330127   0.0000000), wk =   0.0400000
        k(   24) = (   0.2500000   0.5484828   0.0000000), wk =   0.0400000
        k(   25) = (   0.2500000   0.6639528   0.0000000), wk =   0.0400000
        k(   26) = (   0.2500000  -0.3752777   0.0000000), wk =   0.0400000
        k(   27) = (   0.2500000  -0.2598076   0.0000000), wk =   0.0400000
        k(   28) = (   0.2500000  -0.1443376   0.0000000), wk =   0.0400000
        k(   29) = (   0.2500000  -0.0288675   0.0000000), wk =   0.0400000
        k(   30) = (   0.2500000   0.0866025   0.0000000), wk =   0.0400000
        k(   31) = (   0.3500000   0.2598076   0.0000000), wk =   0.0400000
        k(   32) = (   0.3500000   0.3752777   0.0000000), wk =   0.0400000
        k(   33) = (   0.3500000   0.4907477   0.0000000), wk =   0.0400000
        k(   34) = (   0.3500000   0.6062178   0.0000000), wk =   0.0400000
        k(   35) = (   0.3500000   0.7216878   0.0000000), wk =   0.0400000
        k(   36) = (   0.3500000  -0.3175426   0.0000000), wk =   0.0400000
        k(   37) = (   0.3500000  -0.2020726   0.0000000), wk =   0.0400000
        k(   38) = (   0.3500000  -0.0866025   0.0000000), wk =   0.0400000
        k(   39) = (   0.3500000   0.0288675   0.0000000), wk =   0.0400000
        k(   40) = (   0.3500000   0.1443376   0.0000000), wk =   0.0400000
        k(   41) = (   0.4500000   0.3175426   0.0000000), wk =   0.0400000
        k(   42) = (   0.4500000   0.4330127   0.0000000), wk =   0.0400000
        k(   43) = (   0.4500000   0.5484828   0.0000000), wk =   0.0400000
        k(   44) = (   0.4500000   0.6639528   0.0000000), wk =   0.0400000
        k(   45) = (   0.4500000   0.7794229   0.0000000), wk =   0.0400000
        k(   46) = (   0.4500000  -0.2598076   0.0000000), wk =   0.0400000
        k(   47) = (   0.4500000  -0.1443376   0.0000000), wk =   0.0400000
        k(   48) = (   0.4500000  -0.0288675   0.0000000), wk =   0.0400000
        k(   49) = (   0.4500000   0.0866025   0.0000000), wk =   0.0400000
        k(   50) = (   0.4500000   0.2020726   0.0000000), wk =   0.0400000

     Initial potential from superposition of free atoms

     starting charge     335.9650, renormalised to     336.0000

     negative rho (up, down):  1.366E-04 0.000E+00

     Adding external electric field

     Computed dipole along edir(3) :
        Dipole               -0.0747 Ry au,         -0.1897 Debye
        Dipole field         -0.0001 Ry au,

        E field amplitude [Ha a.u.]:  3.0000E-03
        Potential amp.        0.3698 Ry
        Total length         60.4102 bohr

     Starting wfcs are  216 atomic wfcs

     Self-consistent Calculation

     iteration #  1     ecut=    80.00 Ry     beta= 0.70
     Davidson diagonalization with overlap
     ethr =  1.00E-02,  avg # of iterations =  3.0

     Threshold (ethr) on eigenvalues was too large:
     Diagonalizing with lowered threshold

     Davidson diagonalization with overlap
     ethr =  8.49E-04,  avg # of iterations =  2.0

[...]

     total energy              =   -4144.43908609 Ry
     estimated scf accuracy    <       2.89876748 Ry

[...]

     iteration #  8     ecut=    80.00 Ry     beta= 0.70
     Davidson diagonalization with overlap
     c_bands:  2 eigenvalues not converged
     ethr =  2.01E-05,  avg # of iterations =  8.1

[...]

     negative rho (up, down):  3.417E-07 0.000E+00

[...]

     total energy              =   -4146.60106312 Ry
     estimated scf accuracy    <       0.00000001 Ry

     iteration # 29     ecut=    80.00 Ry     beta= 0.70
     Davidson diagonalization with overlap
     ethr =  1.89E-12,  avg # of iterations =  1.0

     Adding external electric field

     Computed dipole along edir(3) :
        Dipole                0.4918 Ry au,          1.2501 Debye
        Dipole field          0.0004 Ry au,

        E field amplitude [Ha a.u.]:  3.0000E-03
        Potential amp.        0.3141 Ry
        Total length         60.4102 bohr

     End of self-consistent calculation

          k = 0.0500 0.0866 0.0000 (186449 PWs)   bands (ev):

   -37.2555 -37.2555 -37.2555 -37.2555 -37.2555 -37.2548 -37.2548 -37.2548
   -37.0652 -37.0651 -37.0651 -37.0650 -37.0627 -37.0627 -37.0625 -37.0625
   -37.0041 -37.0037 -37.0037 -37.0037 -36.7289 -36.7284 -36.7284 -36.7284
[...]
   -15.9341 -15.9339 -15.9339 -15.9212 -15.9211 -15.9211 -15.9209 -15.9208
   -13.5858 -12.8813 -12.1865 -12.1865 -12.1363 -11.8493 -11.8493 -11.8306
   -11.5174 -11.1957 -11.1954 -11.1954  -8.0427  -7.8582  -7.8411  -7.8411
    -7.5032  -7.4516  -7.4516  -6.5537  -6.5537  -6.5349  -6.1942  -4.3900
    -4.3846  -4.3846  -4.1123  -3.8081  -3.7395  -3.7395  -3.4060  -3.2706
    -3.2706  -3.0513  -3.0438  -3.0438  -2.9649  -2.9649  -2.9273  -2.5829
    -2.4133  -2.2976  -2.2976  -2.2883  -2.1259  -2.0052  -1.8996  -1.7869
    -1.7386  -1.7386  -1.0147  -0.9597  -0.9597  -0.5091  -0.3964  -0.3340
    -0.1223   0.3500   0.3500   0.4604   0.6177   0.6177   0.7134   1.3372
     1.4272   1.4649   1.4649   1.6443   1.6626   1.6626   1.9984   2.1766
     2.3503   2.5576   2.7082   2.7082   2.7455   2.9539   3.1013   3.1745
     3.2832   3.3354

[...]

          k = 0.4500 0.2021 0.0000 (186681 PWs)   bands (ev):

   -37.2555 -37.2555 -37.2553 -37.2553 -37.2552 -37.2550 -37.2549 -37.2549
   -37.0652 -37.0651 -37.0650 -37.0650 -37.0626 -37.0626 -37.0626 -37.0625
   -37.0039 -37.0038 -37.0037 -37.0037 -36.7287 -36.7286 -36.7284 -36.7284
   -36.7171 -36.7171 -36.7169 -36.7169 -36.7168 -36.7168 -36.7168 -36.7167
   -36.6947 -36.6947 -36.6946 -36.6945 -36.6943 -36.6941 -36.6939 -36.6939
   -36.6140 -36.6140 -36.6138 -36.6137 -36.6136 -36.6133 -36.6131 -36.6131
   -36.5734 -36.5734 -36.5733 -36.5732 -36.5732 -36.5731 -36.5731 -36.5731
   -36.5698 -36.5696 -36.5694 -36.5694 -16.6707 -16.6703 -16.6681 -16.6671
   -16.6642 -16.6609 -16.6592 -16.6592 -16.5411 -16.5403 -16.5394 -16.5393
   -16.5300 -16.5300 -16.5283 -16.5272 -16.5267 -16.5265 -16.5253 -16.5248
   -16.3382 -16.3376 -16.3343 -16.3304 -16.2964 -16.2961 -16.2939 -16.2922
   -16.2765 -16.2719 -16.2681 -16.2677 -16.2354 -16.2350 -16.2350 -16.2326
   -16.2273 -16.2270 -16.2265 -16.2260 -16.0525 -16.0509 -16.0419 -16.0320
   -15.9858 -15.9831 -15.9799 -15.9775 -15.9768 -15.9750 -15.9692 -15.9688
   -15.9316 -15.9315 -15.9296 -15.9265 -15.9245 -15.9236 -15.9214 -15.9213
   -13.1950 -12.8913 -12.5424 -12.3030 -12.2938 -12.1163 -11.8777 -11.7835
   -11.3653 -11.2752 -11.1823 -11.1802  -7.7413  -7.7355  -7.6546  -7.5785
    -7.2713  -7.0811  -6.6592  -6.5516  -6.5125  -6.3465  -5.9500  -5.1492
    -4.7364  -4.5234  -4.5022  -4.4387  -4.2833  -4.1882  -4.1496  -4.0776
    -3.3450  -3.0892  -3.0819  -3.0264  -2.7723  -2.7465  -2.7049  -2.5958
    -2.5710  -2.4994  -2.4683  -2.4490  -2.4104  -2.2387  -2.0284  -1.7519
    -1.5912  -1.5496  -1.2607  -1.1138  -0.7532  -0.6143  -0.4951  -0.0980
     0.2151   0.2297   0.6269   0.8930   0.8991   1.0365   1.7864   1.8190
     1.8241   1.9089   2.0486   2.0649   2.0664   2.0842   2.3459   2.4518
     2.4799   2.4825   2.6075   2.7627   2.9696   3.0017   3.1276   3.2397
     3.4045   3.4380

     the Fermi energy is    -1.7053 ev

!    total energy              =   -4146.60106312 Ry
     estimated scf accuracy    <          2.2E-10 Ry
     smearing contrib. (-TS)   =      -0.00000044 Ry
     internal energy E=F+TS    =   -4146.60106269 Ry

     The total energy is F=E-TS. E is the sum of the following terms:
     one-electron contribution =  -50027.46216043 Ry
     hartree contribution      =   25089.40220684 Ry
     xc contribution           =    -964.54170134 Ry
     ewald contribution        =   21756.00334631 Ry
     electric field correction =      -0.00275406 Ry

     convergence has been achieved in  29 iterations

     Forces acting on atoms (cartesian axes, Ry/au):

     atom    1 type  1   force =     0.00006675   -0.00003857   -0.01344374
     atom    2 type  1   force =     0.00000470   -0.00000310    0.00664287
     atom    3 type  1   force =    -0.00004096    0.00002375    0.02214547
     atom    4 type  1   force =     0.00000475   -0.00000261    0.00664302
     atom    5 type  1   force =    -0.00004071    0.00002355    0.02214668
     atom    6 type  1   force =     0.00006672   -0.00003851   -0.01344349
     atom    7 type  1   force =     0.00000404   -0.00000257    0.00664238
     atom    8 type  1   force =    -0.00004127    0.00002414    0.02214507
     atom    9 type  1   force =     0.00006654   -0.00003842   -0.01344357
     atom   10 type  1   force =     0.00000385   -0.00000207    0.00664259
     atom   11 type  1   force =    -0.00004164    0.00002417    0.02214525
     atom   12 type  1   force =     0.00006652   -0.00003842   -0.01344346
     atom   13 type  2   force =     0.00007025   -0.00004028   -0.00886627
     atom   14 type  2   force =    -0.00002101    0.00001201   -0.01401879
     atom   15 type  2   force =    -0.00007925    0.00004583    0.00754035
     atom   16 type  2   force =    -0.00007936    0.00004586    0.00754035
     atom   17 type  2   force =     0.00006955   -0.00004089   -0.00886562
     atom   18 type  2   force =    -0.00002056    0.00001202   -0.01401841
     atom   19 type  2   force =     0.00006819   -0.00003967   -0.00886580
     atom   20 type  2   force =    -0.00002044    0.00001182   -0.01401860
     atom   21 type  2   force =    -0.00007768    0.00004491    0.00753914
     atom   22 type  2   force =     0.00006921   -0.00003981   -0.00886619
     atom   23 type  2   force =    -0.00002071    0.00001195   -0.01401818
     atom   24 type  2   force =    -0.00007746    0.00004493    0.00753894
     The non-local contrib.  to forces
     atom    1 type  1   force =    -0.00038175    0.00022037    0.35371063
     atom    2 type  1   force =    -0.00011083    0.00006383   -0.08707862
     atom    3 type  1   force =     0.00001076   -0.00000599   -0.10780814
     atom    4 type  1   force =    -0.00011085    0.00006389   -0.08707857
     atom    5 type  1   force =     0.00001097   -0.00000651   -0.10780701
     atom    6 type  1   force =    -0.00038181    0.00022041    0.35371077
     atom    7 type  1   force =    -0.00011157    0.00006437   -0.08707790
     atom    8 type  1   force =     0.00001226   -0.00000695   -0.10780855
     atom    9 type  1   force =    -0.00038210    0.00022057    0.35371051
     atom   10 type  1   force =    -0.00011173    0.00006450   -0.08707821
     atom   11 type  1   force =     0.00001220   -0.00000699   -0.10780798
     atom   12 type  1   force =    -0.00038209    0.00022058    0.35371046
     atom   13 type  2   force =    -0.00033519    0.00019412   -0.05058440
     atom   14 type  2   force =     0.00001797   -0.00001066   -0.46142995
     atom   15 type  2   force =     0.00002351   -0.00001322    0.10450374
     atom   16 type  2   force =     0.00002336   -0.00001383    0.10450394
     atom   17 type  2   force =    -0.00033587    0.00019396   -0.05058398
     atom   18 type  2   force =     0.00001865   -0.00001043   -0.46142960
     atom   19 type  2   force =    -0.00033654    0.00019383   -0.05058496
     atom   20 type  2   force =     0.00001938   -0.00001099   -0.46142954
     atom   21 type  2   force =     0.00002308   -0.00001343    0.10450249
     atom   22 type  2   force =    -0.00033637    0.00019495   -0.05058470
     atom   23 type  2   force =     0.00001858   -0.00001089   -0.46142949
     atom   24 type  2   force =     0.00002299   -0.00001356    0.10450282
     The ionic contribution  to forces
     atom    1 type  1   force =     0.00000062   -0.00000103 -167.56823365
     atom    2 type  1   force =    -0.00001377   -0.00001957  -53.88644650
     atom    3 type  1   force =    -0.00001024    0.00001227   80.02791724
     atom    4 type  1   force =    -0.00000297    0.00001769  -53.88645316
     atom    5 type  1   force =     0.00000702   -0.00000737   80.02792777
     atom    6 type  1   force =     0.00000475   -0.00000180 -167.56823119
     atom    7 type  1   force =     0.00002264   -0.00003124  -53.88645601
     atom    8 type  1   force =     0.00001650    0.00002370   80.02792137
     atom    9 type  1   force =    -0.00000123    0.00000357 -167.56823276
     atom   10 type  1   force =     0.00001018    0.00000841  -53.88644934
     atom   11 type  1   force =    -0.00002147    0.00000292   80.02794471
     atom   12 type  1   force =    -0.00000448   -0.00000021 -167.56822758
     atom   13 type  2   force =    -0.00001144    0.00000988   53.88643765
     atom   14 type  2   force =     0.00000929    0.00000439  188.12656113
     atom   15 type  2   force =     0.00000361   -0.00001556 -100.58625196
     atom   16 type  2   force =     0.00000416    0.00001198 -100.58626457
     atom   17 type  2   force =    -0.00000886   -0.00002094   53.88645403
     atom   18 type  2   force =    -0.00001214   -0.00000315  188.12655812
     atom   19 type  2   force =     0.00000615    0.00001817   53.88645570
     atom   20 type  2   force =    -0.00001042   -0.00000688  188.12656606
     atom   21 type  2   force =    -0.00001530    0.00000675 -100.58623605
     atom   22 type  2   force =     0.00002291   -0.00003952   53.88643932
     atom   23 type  2   force =     0.00001303    0.00000656  188.12655919
     atom   24 type  2   force =    -0.00000852    0.00002098 -100.58625955
     The local contribution  to forces
     atom    1 type  1   force =     0.00046776   -0.00026921  167.13406550
     atom    2 type  1   force =     0.00012904   -0.00004651   53.91500375
     atom    3 type  1   force =    -0.00005422    0.00002477  -79.95972223
     atom    4 type  1   force =     0.00011815   -0.00008462   53.91501009
     atom    5 type  1   force =    -0.00007062    0.00004433  -79.95973457
     atom    6 type  1   force =     0.00046345   -0.00026860  167.13406269
     atom    7 type  1   force =     0.00009684   -0.00003746   53.91501482
     atom    8 type  1   force =    -0.00007015    0.00000811  -79.95973766
     atom    9 type  1   force =     0.00046531   -0.00027154  167.13406355
     atom   10 type  1   force =     0.00010953   -0.00007783   53.91500797
     atom   11 type  1   force =    -0.00003336    0.00002814  -79.95974715
     atom   12 type  1   force =     0.00046871   -0.00026773  167.13405865
     atom   13 type  2   force =     0.00042059   -0.00025122  -53.92371273
     atom   14 type  2   force =    -0.00005119    0.00001986 -187.76569999
     atom   15 type  2   force =    -0.00010428    0.00007378  100.40961642
     atom   16 type  2   force =    -0.00010459    0.00004603  100.40962886
     atom   17 type  2   force =     0.00042206   -0.00021359  -53.92372890
     atom   18 type  2   force =    -0.00003024    0.00002747 -187.76569746
     atom   19 type  2   force =     0.00041177   -0.00025912  -53.92373492
     atom   20 type  2   force =    -0.00003015    0.00002985 -187.76570343
     atom   21 type  2   force =    -0.00010020    0.00006073  100.40960250
     atom   22 type  2   force =     0.00039168   -0.00020058  -53.92371555
     atom   23 type  2   force =    -0.00005275    0.00001675 -187.76569360
     atom   24 type  2   force =    -0.00010702    0.00004556  100.40962569
     The core correction contribution to forces
     atom    1 type  1   force =    -0.00001746    0.00001009   -0.00057126
     atom    2 type  1   force =    -0.00000263    0.00000154   -0.00242881
     atom    3 type  1   force =     0.00000649   -0.00000374   -0.00581291
     atom    4 type  1   force =    -0.00000263    0.00000150   -0.00242883
     atom    5 type  1   force =     0.00000649   -0.00000377   -0.00581298
     atom    6 type  1   force =    -0.00001747    0.00001008   -0.00057129
     atom    7 type  1   force =    -0.00000253    0.00000148   -0.00242880
     atom    8 type  1   force =     0.00000677   -0.00000390   -0.00581290
     atom    9 type  1   force =    -0.00001757    0.00001014   -0.00057132
     atom   10 type  1   force =    -0.00000253    0.00000144   -0.00242883
     atom   11 type  1   force =     0.00000675   -0.00000392   -0.00581286
     atom   12 type  1   force =    -0.00001757    0.00001014   -0.00057132
     atom   13 type  2   force =    -0.00000835    0.00000479    0.00101840
     atom   14 type  2   force =     0.00000219   -0.00000126    0.00857833
     atom   15 type  2   force =     0.00000705   -0.00000408    0.00168212
     atom   16 type  2   force =     0.00000706   -0.00000407    0.00168211
     atom   17 type  2   force =    -0.00000832    0.00000484    0.00101840
     atom   18 type  2   force =     0.00000217   -0.00000125    0.00857828
     atom   19 type  2   force =    -0.00000827    0.00000479    0.00101833
     atom   20 type  2   force =     0.00000220   -0.00000128    0.00857832
     atom   21 type  2   force =     0.00000683   -0.00000394    0.00168213
     atom   22 type  2   force =    -0.00000831    0.00000479    0.00101835
     atom   23 type  2   force =     0.00000223   -0.00000128    0.00857829
     atom   24 type  2   force =     0.00000681   -0.00000394    0.00168213
     The Hubbard contrib.    to forces
     atom    1 type  1   force =     0.00000000    0.00000000    0.00000000
     atom    2 type  1   force =     0.00000000    0.00000000    0.00000000
     atom    3 type  1   force =     0.00000000    0.00000000    0.00000000
     atom    4 type  1   force =     0.00000000    0.00000000    0.00000000
     atom    5 type  1   force =     0.00000000    0.00000000    0.00000000
     atom    6 type  1   force =     0.00000000    0.00000000    0.00000000
     atom    7 type  1   force =     0.00000000    0.00000000    0.00000000
     atom    8 type  1   force =     0.00000000    0.00000000    0.00000000
     atom    9 type  1   force =     0.00000000    0.00000000    0.00000000
     atom   10 type  1   force =     0.00000000    0.00000000    0.00000000
     atom   11 type  1   force =     0.00000000    0.00000000    0.00000000
     atom   12 type  1   force =     0.00000000    0.00000000    0.00000000
     atom   13 type  2   force =     0.00000000    0.00000000    0.00000000
     atom   14 type  2   force =     0.00000000    0.00000000    0.00000000
     atom   15 type  2   force =     0.00000000    0.00000000    0.00000000
     atom   16 type  2   force =     0.00000000    0.00000000    0.00000000
     atom   17 type  2   force =     0.00000000    0.00000000    0.00000000
     atom   18 type  2   force =     0.00000000    0.00000000    0.00000000
     atom   19 type  2   force =     0.00000000    0.00000000    0.00000000
     atom   20 type  2   force =     0.00000000    0.00000000    0.00000000
     atom   21 type  2   force =     0.00000000    0.00000000    0.00000000
     atom   22 type  2   force =     0.00000000    0.00000000    0.00000000
     atom   23 type  2   force =     0.00000000    0.00000000    0.00000000
     atom   24 type  2   force =     0.00000000    0.00000000    0.00000000
     The SCF correction term to forces
     atom    1 type  1   force =    -0.00000231    0.00000115   -0.00000902
     atom    2 type  1   force =     0.00000299   -0.00000244   -0.00000101
     atom    3 type  1   force =     0.00000635   -0.00000362   -0.00002255
     atom    4 type  1   force =     0.00000315   -0.00000112   -0.00000057
     atom    5 type  1   force =     0.00000553   -0.00000319   -0.00002060
     atom    6 type  1   force =    -0.00000210    0.00000134   -0.00000852
     atom    7 type  1   force =    -0.00000125    0.00000023   -0.00000379
     atom    8 type  1   force =    -0.00000655    0.00000312   -0.00001126
     atom    9 type  1   force =     0.00000224   -0.00000122   -0.00000761
     atom   10 type  1   force =    -0.00000151    0.00000135   -0.00000305
     atom   11 type  1   force =    -0.00000567    0.00000397   -0.00002553
     atom   12 type  1   force =     0.00000205   -0.00000127   -0.00000772
     atom   13 type  2   force =     0.00000473    0.00000208   -0.00001848
     atom   14 type  2   force =     0.00000083   -0.00000038   -0.00002160
     atom   15 type  2   force =    -0.00000905    0.00000486   -0.00000325
     atom   16 type  2   force =    -0.00000925    0.00000569   -0.00000328
     atom   17 type  2   force =     0.00000063   -0.00000522   -0.00001846
     atom   18 type  2   force =     0.00000110   -0.00000068   -0.00002104
     atom   19 type  2   force =    -0.00000482    0.00000259   -0.00001324
     atom   20 type  2   force =    -0.00000135    0.00000106   -0.00002330
     atom   21 type  2   force =     0.00000801   -0.00000527   -0.00000522
     atom   22 type  2   force =    -0.00000061    0.00000048   -0.00001689
     atom   23 type  2   force =    -0.00000170    0.00000075   -0.00002585
     atom   24 type  2   force =     0.00000838   -0.00000418   -0.00000545

     Total force =     0.064723     Total SCF correction =     0.000078

     Writing all to output data dir ./temp/GaAs_111_0D003Ha.save/

     General routines

     Parallel routines

   This run was terminated on:  17:57:46  20Mar2025

   JOB DONE.