     Program PWSCF v.7.2 starts on 20Mar2025 at 17:12:13

     Reading input from GaAs111_0D001Ha.scf.in

     Current dimensions of program PWSCF are:
     Max number of different atomic species (ntypx) = 10
     Max number of k-points (npk) =  40000
     Max angular momentum in pseudopotentials (lmaxx) =  4
     Found identity + (  0.5000 -0.5000  0.0000) symmetry
     This is a supercell, fractional translations are disabled

     K-points division:     npool     =       8
     R & G space division:  proc/nbgrp/npool/nimage =      18
     Subspace diagonalization in iterative solution of the eigenvalue problem:
     one sub-group per band group will be used

     Using Slab Decomposition

     bravais-lattice index     =            0
     lattice parameter (alat)  =      15.3672  a.u.
     unit-cell volume          =   15443.3545 (a.u.)^3
     number of atoms/cell      =           24
     number of atomic types    =            2
     number of electrons       =       336.00
     number of Kohn-Sham states=          202
     kinetic-energy cutoff     =      80.0000  Ry
     charge density cutoff     =     320.0000  Ry
     scf convergence threshold =      1.0E-09
     mixing beta               =       0.7000
     number of iterations used =            8  plain     mixing
     Exchange-correlation= PBE
                           (   1   4   3   4   0   0   0)

     celldm(1)=  15.367226  celldm(2)=   0.000000  celldm(3)=   0.000000
     celldm(4)=   0.000000  celldm(5)=   0.000000  celldm(6)=   0.000000

     crystal axes: (cart. coord. in units of alat)
               a(1) = (   1.000000   0.000000   0.000000 )
               a(2) = (  -0.500000   0.866025   0.000000 )
               a(3) = (   0.000000   0.000000   4.913881 )

     reciprocal axes: (cart. coord. in units 2 pi/alat)
               b(1) = (  1.000000  0.577350 -0.000000 )
               b(2) = (  0.000000  1.154701  0.000000 )
               b(3) = (  0.000000 -0.000000  0.203505 )

     PseudoPot. # 1 for Ga read from file:
     ./Ga.upf
     MD5 check sum: 93d095ea82f116b4e2622455073fb9ee
     Pseudo is Norm-conserving + core correction, Zval = 13.0
     Generated using ONCVPSP code by D. R. Hamann
     Using radial grid of 1902 points,  6 beta functions with:
                l(1) =   0
                l(2) =   0
                l(3) =   1
                l(4) =   1
                l(5) =   2
                l(6) =   2

     PseudoPot. # 2 for As read from file:
     ./As.upf
     MD5 check sum: 280d9fd8ba68a23ae96e751fcede625c
     Pseudo is Norm-conserving + core correction, Zval = 15.0
     Generated using ONCVPSP code by D. R. Hamann
     Using radial grid of 1350 points,  6 beta functions with:
                l(1) =   0
                l(2) =   0
                l(3) =   1
                l(4) =   1
                l(5) =   2
                l(6) =   2

     atomic species   valence    mass     pseudopotential
        Ga            13.00    69.72000     Ga( 1.00)
        As            15.00    74.92000     As( 1.00)

     No symmetry found

   Cartesian axes

     site n.     atom                  positions (alat units)
         1           Ga  tau(   1) = (   0.0000000   0.0000000   1.8955990  )
         2           Ga  tau(   2) = (   0.0000000   0.5773504   2.3038472  )
         3           Ga  tau(   3) = (   0.5000000   0.2886751   2.7120955  )
         4           Ga  tau(   4) = (   0.7500000   0.1443376   2.3038472  )
         5           Ga  tau(   5) = (  -0.2500001   0.7216878   2.7120955  )
         6           Ga  tau(   6) = (   0.2499999   0.4330127   1.8955990  )
         7           Ga  tau(   7) = (   0.4999999   0.5773504   2.3038472  )
         8           Ga  tau(   8) = (  -0.0000001   0.2886751   2.7120955  )
         9           Ga  tau(   9) = (   0.5000000   0.0000000   1.8955990  )
        10           Ga  tau(  10) = (   0.2500000   0.1443376   2.3038472  )
        11           Ga  tau(  11) = (   0.2500000   0.7216878   2.7120955  )
        12           Ga  tau(  12) = (  -0.2500000   0.4330127   1.8955990  )
        13           As  tau(  13) = (   0.7500000   0.1443376   2.6100335  )
        14           As  tau(  14) = (  -0.2500001   0.7216878   3.0182815  )
        15           As  tau(  15) = (   0.2499999   0.4330127   2.2017852  )
        16           As  tau(  16) = (   0.0000000   0.0000000   2.2017852  )
        17           As  tau(  17) = (   0.0000000   0.5773504   2.6100335  )
        18           As  tau(  18) = (   0.5000000   0.2886751   3.0182815  )
        19           As  tau(  19) = (   0.2500000   0.1443376   2.6100335  )
        20           As  tau(  20) = (   0.2500000   0.7216878   3.0182815  )
        21           As  tau(  21) = (  -0.2500000   0.4330127   2.2017852  )
        22           As  tau(  22) = (   0.4999999   0.5773504   2.6100335  )
        23           As  tau(  23) = (  -0.0000001   0.2886751   3.0182815  )
        24           As  tau(  24) = (   0.5000000   0.0000000   2.2017852  )

     number of k points=    50  Fermi-Dirac smearing, width (Ry)=  0.0000
                       cart. coord. in units 2pi/alat
        k(    1) = (   0.0500000   0.0866025   0.0000000), wk =   0.0400000
        k(    2) = (   0.0500000   0.2020726   0.0000000), wk =   0.0400000
        k(    3) = (   0.0500000   0.3175426   0.0000000), wk =   0.0400000
        k(    4) = (   0.0500000   0.4330127   0.0000000), wk =   0.0400000
        k(    5) = (   0.0500000   0.5484828   0.0000000), wk =   0.0400000
        k(    6) = (   0.0500000  -0.4907477   0.0000000), wk =   0.0400000
        k(    7) = (   0.0500000  -0.3752777   0.0000000), wk =   0.0400000
        k(    8) = (   0.0500000  -0.2598076   0.0000000), wk =   0.0400000
        k(    9) = (   0.0500000  -0.1443376   0.0000000), wk =   0.0400000
        k(   10) = (   0.0500000  -0.0288675   0.0000000), wk =   0.0400000
        k(   11) = (   0.1500000   0.1443376   0.0000000), wk =   0.0400000
        k(   12) = (   0.1500000   0.2598076   0.0000000), wk =   0.0400000
        k(   13) = (   0.1500000   0.3752777   0.0000000), wk =   0.0400000
        k(   14) = (   0.1500000   0.4907477   0.0000000), wk =   0.0400000
        k(   15) = (   0.1500000   0.6062178   0.0000000), wk =   0.0400000
        k(   16) = (   0.1500000  -0.4330127   0.0000000), wk =   0.0400000
        k(   17) = (   0.1500000  -0.3175426   0.0000000), wk =   0.0400000
        k(   18) = (   0.1500000  -0.2020726   0.0000000), wk =   0.0400000
        k(   19) = (   0.1500000  -0.0866025   0.0000000), wk =   0.0400000
        k(   20) = (   0.1500000   0.0288675   0.0000000), wk =   0.0400000
        k(   21) = (   0.2500000   0.2020726   0.0000000), wk =   0.0400000
        k(   22) = (   0.2500000   0.3175426   0.0000000), wk =   0.0400000
        k(   23) = (   0.2500000   0.4330127   0.0000000), wk =   0.0400000
        k(   24) = (   0.2500000   0.5484828   0.0000000), wk =   0.0400000
        k(   25) = (   0.2500000   0.6639528   0.0000000), wk =   0.0400000
        k(   26) = (   0.2500000  -0.3752777   0.0000000), wk =   0.0400000
        k(   27) = (   0.2500000  -0.2598076   0.0000000), wk =   0.0400000
        k(   28) = (   0.2500000  -0.1443376   0.0000000), wk =   0.0400000
        k(   29) = (   0.2500000  -0.0288675   0.0000000), wk =   0.0400000
        k(   30) = (   0.2500000   0.0866025   0.0000000), wk =   0.0400000
        k(   31) = (   0.3500000   0.2598076   0.0000000), wk =   0.0400000
        k(   32) = (   0.3500000   0.3752777   0.0000000), wk =   0.0400000
        k(   33) = (   0.3500000   0.4907477   0.0000000), wk =   0.0400000
        k(   34) = (   0.3500000   0.6062178   0.0000000), wk =   0.0400000
        k(   35) = (   0.3500000   0.7216878   0.0000000), wk =   0.0400000
        k(   36) = (   0.3500000  -0.3175426   0.0000000), wk =   0.0400000
        k(   37) = (   0.3500000  -0.2020726   0.0000000), wk =   0.0400000
        k(   38) = (   0.3500000  -0.0866025   0.0000000), wk =   0.0400000
        k(   39) = (   0.3500000   0.0288675   0.0000000), wk =   0.0400000
        k(   40) = (   0.3500000   0.1443376   0.0000000), wk =   0.0400000
        k(   41) = (   0.4500000   0.3175426   0.0000000), wk =   0.0400000
        k(   42) = (   0.4500000   0.4330127   0.0000000), wk =   0.0400000
        k(   43) = (   0.4500000   0.5484828   0.0000000), wk =   0.0400000
        k(   44) = (   0.4500000   0.6639528   0.0000000), wk =   0.0400000
        k(   45) = (   0.4500000   0.7794229   0.0000000), wk =   0.0400000
        k(   46) = (   0.4500000  -0.2598076   0.0000000), wk =   0.0400000
        k(   47) = (   0.4500000  -0.1443376   0.0000000), wk =   0.0400000
        k(   48) = (   0.4500000  -0.0288675   0.0000000), wk =   0.0400000
        k(   49) = (   0.4500000   0.0866025   0.0000000), wk =   0.0400000
        k(   50) = (   0.4500000   0.2020726   0.0000000), wk =   0.0400000

     Initial potential from superposition of free atoms

     starting charge     335.9650, renormalised to     336.0000

     negative rho (up, down):  1.366E-04 0.000E+00

     Adding external electric field

     Computed dipole along edir(3) :
        Dipole               -0.0747 Ry au,         -0.1897 Debye
        Dipole field         -0.0001 Ry au,

        E field amplitude [Ha a.u.]:  1.0000E-03
        Potential amp.        0.1282 Ry
        Total length         60.4102 bohr

     Starting wfcs are  216 atomic wfcs

     Self-consistent Calculation

     iteration #  1     ecut=    80.00 Ry     beta= 0.70
     Davidson diagonalization with overlap
     ethr =  1.00E-02,  avg # of iterations =  3.0

     Threshold (ethr) on eigenvalues was too large:
     Diagonalizing with lowered threshold

     Davidson diagonalization with overlap
     ethr =  3.82E-04,  avg # of iterations =  2.4

[...]

     total energy              =   -4145.88554690 Ry
     estimated scf accuracy    <       1.29007378 Ry

[...]

     iteration # 10     ecut=    80.00 Ry     beta= 0.70
     Davidson diagonalization with overlap
     c_bands:  1 eigenvalues not converged
     ethr =  6.93E-06,  avg # of iterations =  9.0

[...]

     iteration # 17     ecut=    80.00 Ry     beta= 0.70
     Davidson diagonalization with overlap
     c_bands:  1 eigenvalues not converged
     ethr =  2.02E-09,  avg # of iterations =  7.3

[...]

     negative rho (up, down):  9.459E-07 0.000E+00

[...]

     total energy              =   -4146.60052744 Ry
     estimated scf accuracy    <          3.8E-09 Ry

     iteration # 24     ecut=    80.00 Ry     beta= 0.70
     Davidson diagonalization with overlap
     ethr =  1.12E-12,  avg # of iterations =  2.0

     Adding external electric field

     Computed dipole along edir(3) :
        Dipole               -0.2222 Ry au,         -0.5649 Debye
        Dipole field         -0.0002 Ry au,

        E field amplitude [Ha a.u.]:  1.0000E-03
        Potential amp.        0.1427 Ry
        Total length         60.4102 bohr

     End of self-consistent calculation

          k = 0.0500 0.0866 0.0000 (186449 PWs)   bands (ev):

[...]
   -15.9311 -15.9310 -15.9310 -15.9183 -15.9182 -15.9182 -15.9180 -15.9179
   -13.5773 -12.8732 -12.1777 -12.1777 -12.1274 -11.8409 -11.8409 -11.8223
   -11.5140 -11.1917 -11.1914 -11.1914  -8.0292  -7.8484  -7.8313  -7.8313
    -7.4987  -7.4469  -7.4469  -6.5395  -6.5395  -6.5209  -6.1855  -4.3832
    -4.3777  -4.3777  -4.1030  -3.7995  -3.7310  -3.7310  -3.3987  -3.2639
    -3.2639  -3.0502  -3.0407  -3.0407  -2.9598  -2.9597  -2.9207  -2.5738
    -2.4047  -2.2848  -2.2848  -2.2753  -2.1142  -2.0005  -1.8920  -1.7699
    -1.7216  -1.7216  -1.0127  -0.9574  -0.9574  -0.5050  -0.3931  -0.3245
    -0.1179   0.3609   0.3609   0.4716   0.6226   0.6226   0.7183   1.3543
     1.4810   1.4810   1.5237   1.6551   1.6734   1.6734   2.1860   2.3621
     2.6054   2.7227   2.7227   2.7594   2.8301   3.0842   3.1830   3.2898
     3.2950   3.3763

[...]

          k = 0.4500 0.2021 0.0000 (186681 PWs)   bands (ev):

   -37.2470 -37.2470 -37.2468 -37.2468 -37.2467 -37.2465 -37.2464 -37.2464
   -37.0570 -37.0570 -37.0569 -37.0569 -37.0551 -37.0551 -37.0551 -37.0550
   -36.9964 -36.9963 -36.9961 -36.9961 -36.7228 -36.7227 -36.7225 -36.7225
   -36.7113 -36.7113 -36.7112 -36.7111 -36.7111 -36.7110 -36.7110 -36.7110
   -36.6895 -36.6895 -36.6893 -36.6892 -36.6891 -36.6888 -36.6887 -36.6887
   -36.6013 -36.6013 -36.6011 -36.6010 -36.6009 -36.6006 -36.6004 -36.6004
   -36.5602 -36.5601 -36.5600 -36.5600 -36.5599 -36.5599 -36.5598 -36.5598
   -36.5564 -36.5562 -36.5560 -36.5560 -16.6572 -16.6568 -16.6545 -16.6536
   -16.6507 -16.6474 -16.6457 -16.6456 -16.5269 -16.5262 -16.5254 -16.5253
   -16.5166 -16.5163 -16.5141 -16.5129 -16.5128 -16.5119 -16.5114 -16.5106
   -16.3281 -16.3276 -16.3244 -16.3206 -16.2869 -16.2866 -16.2842 -16.2824
   -16.2666 -16.2620 -16.2582 -16.2579 -16.2255 -16.2252 -16.2252 -16.2229
   -16.2175 -16.2172 -16.2167 -16.2162 -16.0492 -16.0476 -16.0387 -16.0288
   -15.9827 -15.9802 -15.9768 -15.9746 -15.9738 -15.9720 -15.9663 -15.9659
   -15.9286 -15.9286 -15.9266 -15.9236 -15.9216 -15.9206 -15.9185 -15.9184
   -13.1865 -12.8828 -12.5342 -12.2944 -12.2856 -12.1076 -11.8694 -11.7751
   -11.3617 -11.2714 -11.1783 -11.1763  -7.7285  -7.7263  -7.6455  -7.5669
    -7.2664  -7.0756  -6.6498  -6.5378  -6.4983  -6.3376  -5.9417  -5.1411
    -4.7271  -4.5167  -4.4932  -4.4304  -4.2762  -4.1795  -4.1423  -4.0704
    -3.3365  -3.0801  -3.0722  -3.0176  -2.7729  -2.7465  -2.6974  -2.5871
    -2.5683  -2.4962  -2.4527  -2.4417  -2.4007  -2.2336  -2.0217  -1.7486
    -1.5871  -1.5466  -1.2434  -1.0971  -0.7505  -0.6116  -0.4795  -0.0803
     0.2276   0.2470   0.6394   0.8987   0.9170   1.0424   1.8295   1.8399
     1.8520   1.9168   2.0591   2.0765   2.1010   2.1127   2.3625   2.4704
     2.5180   2.5902   2.7871   3.0176   3.1732   3.2500   3.3611   3.4638
     3.5224   3.7051

     the Fermi energy is    -1.6944 ev

!    total energy              =   -4146.60052744 Ry
     estimated scf accuracy    <          5.5E-10 Ry
     smearing contrib. (-TS)   =      -0.00000035 Ry
     internal energy E=F+TS    =   -4146.60052709 Ry

     The total energy is F=E-TS. E is the sum of the following terms:
     one-electron contribution =  -50027.83491325 Ry
     hartree contribution      =   25089.77738047 Ry
     xc contribution           =    -964.54682530 Ry
     ewald contribution        =   21756.00334631 Ry
     electric field correction =       0.00048468 Ry

     convergence has been achieved in  24 iterations

     Forces acting on atoms (cartesian axes, Ry/au):

     atom    1 type  1   force =     0.00005611   -0.00003298   -0.01406742
     atom    2 type  1   force =    -0.00003654    0.00001923    0.00660162
     atom    3 type  1   force =    -0.00004418    0.00002594    0.02208202
     atom    4 type  1   force =    -0.00003644    0.00001987    0.00660157
     atom    5 type  1   force =    -0.00004395    0.00002601    0.02208202
     atom    6 type  1   force =     0.00005617   -0.00003296   -0.01406740
     atom    7 type  1   force =    -0.00003608    0.00001950    0.00660182
     atom    8 type  1   force =    -0.00004362    0.00002649    0.02208243
     atom    9 type  1   force =     0.00005568   -0.00003287   -0.01406756
     atom   10 type  1   force =    -0.00003619    0.00002013    0.00660209
     atom   11 type  1   force =    -0.00004461    0.00002604    0.02208447
     atom   12 type  1   force =     0.00005564   -0.00003285   -0.01406751
     atom   13 type  2   force =     0.00008216   -0.00004746   -0.00871144
     atom   14 type  2   force =    -0.00000968    0.00000638   -0.01409636
     atom   15 type  2   force =    -0.00004797    0.00002837    0.00819265
     atom   16 type  2   force =    -0.00004792    0.00002872    0.00819233
     atom   17 type  2   force =     0.00008200   -0.00004848   -0.00871149
     atom   18 type  2   force =    -0.00000956    0.00000637   -0.01409657
     atom   19 type  2   force =     0.00008090   -0.00004674   -0.00871149
     atom   20 type  2   force =    -0.00000945    0.00000630   -0.01409685
     atom   21 type  2   force =    -0.00004725    0.00002833    0.00819011
     atom   22 type  2   force =     0.00008139   -0.00004803   -0.00871200
     atom   23 type  2   force =    -0.00000948    0.00000631   -0.01409696
     atom   24 type  2   force =    -0.00004716    0.00002837    0.00818991
     The non-local contrib.  to forces
     atom    1 type  1   force =    -0.00034700    0.00019922    0.35476062
     atom    2 type  1   force =     0.00010609   -0.00006317   -0.08600416
     atom    3 type  1   force =     0.00001454   -0.00000816   -0.10560462
     atom    4 type  1   force =     0.00010598   -0.00006285   -0.08600430
     atom    5 type  1   force =     0.00001440   -0.00000823   -0.10560352
     atom    6 type  1   force =    -0.00034693    0.00019921    0.35476061
     atom    7 type  1   force =     0.00010685   -0.00006334   -0.08600409
     atom    8 type  1   force =     0.00001465   -0.00000759   -0.10560555
     atom    9 type  1   force =    -0.00034754    0.00019928    0.35476072
     atom   10 type  1   force =     0.00010682   -0.00006286   -0.08600429
     atom   11 type  1   force =     0.00001382   -0.00000799   -0.10560207
     atom   12 type  1   force =    -0.00034757    0.00019928    0.35476061
     atom   13 type  2   force =    -0.00026879    0.00015515   -0.04914000
     atom   14 type  2   force =    -0.00003559    0.00002103   -0.45735783
     atom   15 type  2   force =    -0.00003531    0.00002098    0.10792413
     atom   16 type  2   force =    -0.00003535    0.00002071    0.10792413
     atom   17 type  2   force =    -0.00026910    0.00015448   -0.04914025
     atom   18 type  2   force =    -0.00003506    0.00002117   -0.45735746
     atom   19 type  2   force =    -0.00026887    0.00015457   -0.04914011
     atom   20 type  2   force =    -0.00003502    0.00002123   -0.45735907
     atom   21 type  2   force =    -0.00003393    0.00001982    0.10792329
     atom   22 type  2   force =    -0.00026908    0.00015448   -0.04913997
     atom   23 type  2   force =    -0.00003543    0.00002103   -0.45735825
     atom   24 type  2   force =    -0.00003401    0.00001984    0.10792335
     The ionic contribution  to forces
     atom    1 type  1   force =     0.00000062   -0.00000103 -167.56823365
     atom    2 type  1   force =    -0.00001377   -0.00001957  -53.88644650
     atom    3 type  1   force =    -0.00001024    0.00001227   80.02791724
     atom    4 type  1   force =    -0.00000297    0.00001769  -53.88645316
     atom    5 type  1   force =     0.00000702   -0.00000737   80.02792777
     atom    6 type  1   force =     0.00000475   -0.00000180 -167.56823119
     atom    7 type  1   force =     0.00002264   -0.00003124  -53.88645601
     atom    8 type  1   force =     0.00001650    0.00002370   80.02792137
     atom    9 type  1   force =    -0.00000123    0.00000357 -167.56823276
     atom   10 type  1   force =     0.00001018    0.00000841  -53.88644934
     atom   11 type  1   force =    -0.00002147    0.00000292   80.02794471
     atom   12 type  1   force =    -0.00000448   -0.00000021 -167.56822758
     atom   13 type  2   force =    -0.00001144    0.00000988   53.88643765
     atom   14 type  2   force =     0.00000929    0.00000439  188.12656113
     atom   15 type  2   force =     0.00000361   -0.00001556 -100.58625196
     atom   16 type  2   force =     0.00000416    0.00001198 -100.58626457
     atom   17 type  2   force =    -0.00000886   -0.00002094   53.88645403
     atom   18 type  2   force =    -0.00001214   -0.00000315  188.12655812
     atom   19 type  2   force =     0.00000615    0.00001817   53.88645570
     atom   20 type  2   force =    -0.00001042   -0.00000688  188.12656606
     atom   21 type  2   force =    -0.00001530    0.00000675 -100.58623605
     atom   22 type  2   force =     0.00002291   -0.00003952   53.88643932
     atom   23 type  2   force =     0.00001303    0.00000656  188.12655919
     atom   24 type  2   force =    -0.00000852    0.00002098 -100.58625955
     The local contribution  to forces
     atom    1 type  1   force =     0.00041847   -0.00023888  167.16919958
     atom    2 type  1   force =    -0.00013674    0.00010914   53.95075754
     atom    3 type  1   force =    -0.00005369    0.00002420  -79.92518786
     atom    4 type  1   force =    -0.00014716    0.00007193   53.95076386
     atom    5 type  1   force =    -0.00007097    0.00004470  -79.92518222
     atom    6 type  1   force =     0.00041427   -0.00023777  167.16919763
     atom    7 type  1   force =    -0.00016699    0.00011739   53.95076519
     atom    8 type  1   force =    -0.00008326    0.00001463  -79.92521310
     atom    9 type  1   force =     0.00042015   -0.00024332  167.16920033
     atom   10 type  1   force =    -0.00015490    0.00007749   53.95075888
     atom   11 type  1   force =    -0.00004603    0.00003635  -79.92521732
     atom   12 type  1   force =     0.00042330   -0.00023921  167.16919550
     atom   13 type  2   force =     0.00036220   -0.00021541  -53.88242883
     atom   14 type  2   force =     0.00001539   -0.00001941 -187.72726570
     atom   15 type  2   force =    -0.00002127    0.00002445  100.44944472
     atom   16 type  2   force =    -0.00002174   -0.00000266  100.44945686
     atom   17 type  2   force =     0.00035881   -0.00017728  -53.88244125
     atom   18 type  2   force =     0.00003631   -0.00001166 -187.72725846
     atom   19 type  2   force =     0.00036015   -0.00023312  -53.88243761
     atom   20 type  2   force =     0.00003538   -0.00000875 -187.72726868
     atom   21 type  2   force =    -0.00000072    0.00000150  100.44943614
     atom   22 type  2   force =     0.00034527   -0.00016747  -53.88241739
     atom   23 type  2   force =     0.00001209   -0.00002162 -187.72725521
     atom   24 type  2   force =    -0.00000715   -0.00001264  100.44945824
     The core correction contribution to forces
     atom    1 type  1   force =    -0.00001517    0.00000883   -0.00049417
     atom    2 type  1   force =     0.00000773   -0.00000428   -0.00240466
     atom    3 type  1   force =     0.00000734   -0.00000422   -0.00575567
     atom    4 type  1   force =     0.00000772   -0.00000431   -0.00240465
     atom    5 type  1   force =     0.00000730   -0.00000424   -0.00575562
     atom    6 type  1   force =    -0.00001517    0.00000884   -0.00049416
     atom    7 type  1   force =     0.00000783   -0.00000438   -0.00240475
     atom    8 type  1   force =     0.00000726   -0.00000424   -0.00575592
     atom    9 type  1   force =    -0.00001515    0.00000883   -0.00049405
     atom   10 type  1   force =     0.00000784   -0.00000438   -0.00240478
     atom   11 type  1   force =     0.00000727   -0.00000419   -0.00575562
     atom   12 type  1   force =    -0.00001515    0.00000884   -0.00049405
     atom   13 type  2   force =    -0.00000941    0.00000545    0.00100496
     atom   14 type  2   force =     0.00000064   -0.00000039    0.00852207
     atom   15 type  2   force =     0.00000368   -0.00000215    0.00165177
     atom   16 type  2   force =     0.00000369   -0.00000214    0.00165176
     atom   17 type  2   force =    -0.00000941    0.00000547    0.00100496
     atom   18 type  2   force =     0.00000062   -0.00000039    0.00852209
     atom   19 type  2   force =    -0.00000926    0.00000537    0.00100506
     atom   20 type  2   force =     0.00000064   -0.00000041    0.00852194
     atom   21 type  2   force =     0.00000374   -0.00000218    0.00165206
     atom   22 type  2   force =    -0.00000926    0.00000543    0.00100509
     atom   23 type  2   force =     0.00000063   -0.00000040    0.00852206
     atom   24 type  2   force =     0.00000374   -0.00000217    0.00165202
     The Hubbard contrib.    to forces
     atom    1 type  1   force =     0.00000000    0.00000000    0.00000000
     atom    2 type  1   force =     0.00000000    0.00000000    0.00000000
     atom    3 type  1   force =     0.00000000    0.00000000    0.00000000
     atom    4 type  1   force =     0.00000000    0.00000000    0.00000000
     atom    5 type  1   force =     0.00000000    0.00000000    0.00000000
     atom    6 type  1   force =     0.00000000    0.00000000    0.00000000
     atom    7 type  1   force =     0.00000000    0.00000000    0.00000000
     atom    8 type  1   force =     0.00000000    0.00000000    0.00000000
     atom    9 type  1   force =     0.00000000    0.00000000    0.00000000
     atom   10 type  1   force =     0.00000000    0.00000000    0.00000000
     atom   11 type  1   force =     0.00000000    0.00000000    0.00000000
     atom   12 type  1   force =     0.00000000    0.00000000    0.00000000
     atom   13 type  2   force =     0.00000000    0.00000000    0.00000000
     atom   14 type  2   force =     0.00000000    0.00000000    0.00000000
     atom   15 type  2   force =     0.00000000    0.00000000    0.00000000
     atom   16 type  2   force =     0.00000000    0.00000000    0.00000000
     atom   17 type  2   force =     0.00000000    0.00000000    0.00000000
     atom   18 type  2   force =     0.00000000    0.00000000    0.00000000
     atom   19 type  2   force =     0.00000000    0.00000000    0.00000000
     atom   20 type  2   force =     0.00000000    0.00000000    0.00000000
     atom   21 type  2   force =     0.00000000    0.00000000    0.00000000
     atom   22 type  2   force =     0.00000000    0.00000000    0.00000000
     atom   23 type  2   force =     0.00000000    0.00000000    0.00000000
     atom   24 type  2   force =     0.00000000    0.00000000    0.00000000
     The SCF correction term to forces
     atom    1 type  1   force =    -0.00000079   -0.00000145   -0.00000116
     atom    2 type  1   force =     0.00000018   -0.00000321   -0.00000196
     atom    3 type  1   force =    -0.00000211    0.00000153    0.00001157
     atom    4 type  1   force =     0.00000000   -0.00000291   -0.00000153
     atom    5 type  1   force =    -0.00000169    0.00000083   -0.00000574
     atom    6 type  1   force =    -0.00000072   -0.00000177   -0.00000165
     atom    7 type  1   force =    -0.00000639    0.00000075    0.00000013
     atom    8 type  1   force =     0.00000125   -0.00000034    0.00003428
     atom    9 type  1   force =    -0.00000053   -0.00000155   -0.00000316
     atom   10 type  1   force =    -0.00000611    0.00000115    0.00000027
     atom   11 type  1   force =     0.00000182   -0.00000137    0.00001342
     atom   12 type  1   force =    -0.00000044   -0.00000188   -0.00000334
     atom   13 type  2   force =     0.00000961   -0.00000285   -0.00000994
     atom   14 type  2   force =     0.00000061    0.00000044    0.00001924
     atom   15 type  2   force =     0.00000133    0.00000033   -0.00000073
     atom   16 type  2   force =     0.00000134    0.00000050   -0.00000057
     atom   17 type  2   force =     0.00001059   -0.00001052   -0.00001371
     atom   18 type  2   force =     0.00000072    0.00000007    0.00001440
     atom   19 type  2   force =    -0.00000725    0.00000795   -0.00001925
     atom   20 type  2   force =    -0.00000001    0.00000079    0.00001818
     atom   21 type  2   force =    -0.00000103    0.00000213   -0.00001006
     atom   22 type  2   force =    -0.00000843   -0.00000128   -0.00002378
     atom   23 type  2   force =     0.00000022    0.00000042    0.00001052
     atom   24 type  2   force =    -0.00000120    0.00000204   -0.00000888

     Total force =     0.065448     Total SCF correction =     0.000068

     Writing all to output data dir ./temp/GaAs_111_0D001Ha.save/

     General routines

     Parallel routines

   This run was terminated on:  17:26:11  20Mar2025

   JOB DONE.